10
1,1,2,3,4,4-Hexachlorbuta-1,3-diene
Cl        1.16052814    -1.73869324    -1.34657092
Cl       -1.16052817    -1.73869323     1.34657093
Cl        3.28974095     0.29812893    -0.11403253
Cl        1.20178763     1.50841069     1.50108868
Cl       -3.28974095     0.29812894     0.11403251
Cl       -1.20178760     1.50841070    -1.50108867
 C        0.70972767    -0.51585545    -0.19240379
 C       -0.70972767    -0.51585544     0.19240380
 C        1.62744302     0.31814623     0.32363251
 C       -1.62744302     0.31814625    -0.32363250
