12
Hexachlorobenzene
Cl        1.56401962     2.70912033     0.00000002
Cl       -1.56413776     2.70905213    -0.00000002
Cl        3.12820457     0.00006821     0.00000001
Cl       -3.12820457    -0.00006821    -0.00000001
Cl        1.56413776    -2.70905213    -0.00000004
Cl       -1.56401962    -2.70912034     0.00000004
 C        0.70102301     1.21425108     0.00000001
 C       -0.70107596     1.21422051    -0.00000000
 C        1.40211516     0.00003057     0.00000000
 C       -1.40211516    -0.00003057     0.00000000
 C        0.70107596    -1.21422051    -0.00000000
 C       -0.70102301    -1.21425108     0.00000001
