10
Hexafluoro-1,3-butadiene
 F       -1.22492006     1.72465235    -0.67438548
 F        1.22492017     1.72465232     0.67438548
 F       -2.82452084    -0.38348307    -0.07767022
 F       -1.16124773    -1.48887693     0.78258983
 F        2.82452084    -0.38348315     0.07767013
 F        1.16124763    -1.48887698    -0.78258977
 C       -0.71600680     0.61626618    -0.11551485
 C        0.71600682     0.61626614     0.11551494
 C       -1.54518576    -0.38241527     0.19355824
 C        1.54518574    -0.38241530    -0.19355827
