12
Octafluoro-2-butene
 F        0.46994093     1.70739688     0.00000002
 F       -0.46994094    -1.70739691     0.00000002
 F        2.61202043     0.40340304     1.07921807
 F        2.61202005     0.40340192    -1.07921878
 F        2.09828583    -1.40231150     0.00000067
 F       -2.61202031    -0.40340273    -1.07921827
 F       -2.61202019    -0.40340217     1.07921858
 F       -2.09828579     1.40231150    -0.00000033
 C        0.54493892     0.38323998     0.00000004
 C       -0.54493892    -0.38324002     0.00000001
 C        1.98672723    -0.07907344     0.00000001
 C       -1.98672723     0.07907344    -0.00000001
