12
Octafluorocyclobutane
 C        0.82890505    -0.73074194     0.07836601
 C        0.73073959     0.82890525    -0.07836251
 C       -0.82890760     0.73074062     0.07836562
 C       -0.73074282    -0.82890752    -0.07836753
 F        1.08660561     1.23269863    -1.30185673
 F        1.35855219     1.54091067     0.85307005
 F        1.54091398    -1.35854663    -0.85306930
 F        1.23269969    -1.08660664     1.30185972
 F       -1.35855206    -1.54091046     0.85306916
 F       -1.08660416    -1.23270024    -1.30186247
 F       -1.54090766     1.35855386    -0.85307073
 F       -1.23270395     1.08660306     1.30185931
