18
Perfluoro-2-methylpent-2-ene
 C        1.18267104    -1.41094861     0.01400477
 C        1.01309213     0.10581876     0.08140041
 F        0.20735388    -1.99222871    -0.69076730
 F        2.33515994    -1.72070693    -0.58640431
 F        1.20218074    -1.95716917     1.23281342
 C        2.30123291     0.89389810    -0.13006101
 C       -0.15640944     0.70682776     0.31812712
 F       -0.28137237     2.02244344     0.30133508
 C       -1.51502148     0.09437712     0.66048002
 C       -2.49626330     0.08558993    -0.54393010
 F       -1.40564094    -1.15597595     1.12695450
 F       -2.07472096     0.86066811     1.61820839
 F       -3.66104366    -0.42104630    -0.15976310
 F       -2.68141667     1.33106939    -0.97739181
 F       -2.00504848    -0.64835775    -1.53736888
 F        3.26378898     0.39467319     0.65680733
 F        2.71325732     0.79999293    -1.39870935
 F        2.17950458     2.18625684     0.16161978
