28
trans-Perfluorobicyclo[4.4.0]decane
 C        1.28247250     1.49208706    -0.04893184
 C        2.57711938     0.71080840     0.30899114
 C        2.57686859    -0.71115209    -0.30907125
 F        3.62573435     1.39216180    -0.17435203
 F        2.69414533     0.61447401     1.64128700
 C        1.28216605    -1.49221077     0.04926344
 F        2.69334841    -0.61463403    -1.64139889
 F        3.62558951    -1.39269052     0.17377361
 C       -0.01580553     0.70732982     0.31667629
 F        1.27843250     2.64946867     0.63211265
 F        1.33720394     1.75135627    -1.36489988
 C       -0.01585482    -0.70743597    -0.31667266
 F        1.27786305    -2.64985484    -0.63135112
 F        1.33683595    -1.75096061     1.36532859
 C       -1.31036692     1.54152695    -0.04134580
 F       -0.00982952     0.53879323     1.67364962
 C       -1.31071858    -1.54142017     0.04107892
 F       -0.00946694    -0.53893821    -1.67363145
 C       -2.55599533     0.66211386    -0.38932136
 F       -1.60909276     2.29027209     1.02756331
 F       -1.09221245     2.35397685    -1.08593594
 C       -2.55607640    -0.66174480     0.38956720
 F       -1.60985666    -2.28953000    -1.02817800
 F       -1.09274155    -2.35451396     1.08518444
 F       -3.66702274    -1.35016446     0.10364159
 F       -2.54133411    -0.37618220     1.70379773
 F       -3.66674792     1.35078243    -0.10323875
 F       -2.54167265     0.37624519    -1.70350032
