10
1,3-Butadiene
 C        1.84427865     0.11771064     0.00000000
 C        0.60988214    -0.39632164    -0.00000000
 C       -0.60988214     0.39632161    -0.00000000
 C       -1.84427866    -0.11771061     0.00000000
 H        2.72709093    -0.51174509     0.00000000
 H        2.01149883     1.19123949     0.00000000
 H        0.47872348    -1.47784069    -0.00000000
 H       -0.47872344     1.47784069    -0.00000000
 H       -2.01149887    -1.19123943     0.00000000
 H       -2.72709088     0.51174515     0.00000000
