10
But-2-yne
 C       -2.05946001    -0.00001155    -0.00000001
 C       -0.60203200     0.00001757     0.00000002
 C        0.60203184     0.00001757     0.00000002
 C        2.05946013    -0.00001155    -0.00000001
 H       -2.45897271     1.02057270     0.00238466
 H       -2.45892611    -0.50825700    -0.88505458
 H       -2.45892606    -0.51238740     0.88266983
 H        2.45897286     1.02057277     0.00238459
 H        2.45892620    -0.51238738     0.88266992
 H        2.45892625    -0.50825709    -0.88505460
