15
Toluene
 C       -0.94904549     0.00000002    -0.00945291
 C       -0.23133573    -1.20043724    -0.00775426
 C       -0.23133571     1.20043725    -0.00775427
 C        1.16164428    -1.20329622     0.00198942
 C        1.16164430     1.20329621     0.00198942
 C        1.86426685    -0.00000001     0.00768189
 C       -2.45908243     0.00000001     0.00964583
 H       -2.84374274    -0.00000099     1.03734061
 H       -2.86575182     0.88573200    -0.48749881
 H       -2.86575183    -0.88573105    -0.48750050
 H        1.69843937    -2.14706687     0.00081629
 H        1.69843941     2.14706685     0.00081631
 H        2.94954962    -0.00000002     0.01198952
 H       -0.77136185    -2.14347450    -0.01622285
 H       -0.77136182     2.14347452    -0.01622284
