24
1,1,2-Trimethylcyclopentane
 C       -0.74272787    -0.16162945     0.01430179
 C        0.36036610     0.76319239     0.62103965
 C        0.02431515    -0.89462929    -1.11085374
 C        1.64676444    -0.10887583     0.57976540
 C        1.43185142    -1.17089573    -0.53857299
 C       -1.20261911    -1.17117511     1.08587125
 C       -1.97621501     0.58113394    -0.51523622
 C        0.56454182     2.08829218    -0.12852694
 H        0.10009169     1.00824961     1.65822029
 H       -0.48845937    -1.80608603    -1.43622552
 H        0.09298126    -0.24216346    -1.98934592
 H        2.53008497     0.50883138     0.39107568
 H        1.81563532    -0.59747013     1.54387469
 H        2.20050906    -1.11368793    -1.31438303
 H        1.48919990    -2.18164115    -0.12337085
 H       -1.70664858    -0.65853171     1.91299915
 H       -1.90921015    -1.89400342     0.66254874
 H       -0.36657784    -1.73610714     1.50951811
 H       -1.72581326     1.26876836    -1.32815223
 H       -2.71429013    -0.13019002    -0.90321075
 H       -2.46610797     1.16000232     0.27667378
 H       -0.32472277     2.72437654    -0.09157387
 H        1.39012724     2.65000433     0.32146573
 H        0.81778549     1.92773763    -1.18284613
