22
1,2,3,4-Tetrahydronaphthalene
 C        2.43292327     0.68395797    -0.34486549
 C        2.43292294    -0.68395809     0.34486613
 C        1.20437541    -1.49348118    -0.08640768
 C       -0.08989181    -0.70150930    -0.02437136
 C       -1.31417290    -1.38042450    -0.04525967
 C       -2.52372954    -0.69692294    -0.02220089
 C       -2.52372951     0.69692299     0.02220121
 C       -1.31417286     1.38042451     0.04525961
 C       -0.08989178     0.70150929     0.02437094
 C        1.20437543     1.49348123     0.08640714
 H        2.41967081     0.54027589    -1.43360405
 H        3.34700245     1.24041481    -0.11085251
 H        3.34700230    -1.24041496     0.11085393
 H        2.41966947    -0.54027608     1.43360469
 H        1.10833686    -2.40000277     0.52269205
 H        1.35459961    -1.84323353    -1.11852090
 H       -1.31070000    -2.46718985    -0.08012173
 H       -3.46004375    -1.24593424    -0.03803815
 H       -3.46004371     1.24593431     0.03803883
 H       -1.31069993     2.46718987     0.08012171
 H        1.35459909     1.84323442     1.11852015
 H        1.10833709     2.40000234    -0.52269334
