25
1-Butylcyclopent-1-ene
 C       -0.56009458    -0.20553146    -0.48287506
 C       -1.42280506    -1.08626197     0.40553616
 C       -2.75552033    -0.30389032     0.51113614
 C        0.72924395    -0.69209556    -1.07881261
 C       -2.39920577     1.16049759     0.14399857
 C       -1.10202749     1.00901186    -0.61410541
 C        1.79396280    -1.09567304    -0.03354082
 C        2.27416820     0.04716104     0.87444080
 C        3.06228757     1.14028289     0.14346048
 H       -1.55781294    -2.09467844    -0.00521896
 H       -0.95217303    -1.22029347     1.39021010
 H       -3.22597431    -0.39489035     1.49383452
 H       -3.46502612    -0.69744344    -0.22401099
 H        1.13449333     0.07431078    -1.74896264
 H        0.52469638    -1.57251615    -1.70511713
 H       -2.25864114     1.78350120     1.03967404
 H       -3.18657183     1.64721782    -0.44359101
 H       -0.65576118     1.82290216    -1.17796883
 H        2.65525298    -1.52344769    -0.56323187
 H        1.38975580    -1.90235701     0.59053383
 H        2.90408932    -0.37812223     1.66553710
 H        1.41003462     0.49780405     1.37817051
 H        3.93312662     0.72079762    -0.37372604
 H        3.42571028     1.89851227     0.84450172
 H        2.44926314     1.65422002    -0.60368418
