18
1-Cyclopropylpropane
 C       -0.72718635    -0.10969820    -0.40742275
 C       -1.65608137    -0.73341914     0.60553406
 C       -2.18757192     0.26371717    -0.39649017
 C        0.32209701     0.88989897     0.03854160
 C        1.60666688     0.25374480     0.59676085
 C        2.41302502    -0.53961322    -0.43779873
 H       -0.42162846    -0.75889515    -1.22398019
 H       -1.93087364    -1.77655024     0.49107041
 H       -1.56566803    -0.41094034     1.63844669
 H       -2.45408073     1.25181464    -0.03402753
 H       -2.82300428    -0.09952070    -1.19721827
 H        0.58106212     1.54899707    -0.80246108
 H       -0.11790188     1.53761778     0.80832568
 H        2.23996931     1.04842736     1.01062036
 H        1.34508023    -0.40116077     1.43777141
 H        2.68971403     0.09090795    -1.29084973
 H        3.33735036    -0.93136073    -0.00128728
 H        1.84723533    -1.39260504    -0.82599045
