19
[(1E)-prop-1-en-1-yl]benzene
 C        0.00116354    -0.20275169    -0.00012601
 C        0.90846819    -1.27380511    -0.00000767
 C        0.52814089     1.10031514    -0.00015746
 C       -1.43793290    -0.49554217    -0.00022505
 C        2.28353419    -1.05906231     0.00012120
 C        1.90022913     1.31667324    -0.00002823
 C        2.78729915     0.23895826     0.00011833
 C       -2.45347073     0.37536119     0.00021569
 C       -3.90243745    -0.00770299     0.00007083
 H       -1.68192825    -1.55824751    -0.00067295
 H       -2.24963608     1.44498353     0.00074118
 H        0.52246807    -2.28950671    -0.00000205
 H       -0.14164171     1.95394018    -0.00032249
 H        2.96105646    -1.90733252     0.00022002
 H        2.28224458     2.33301557    -0.00006111
 H        3.85858212     0.41209666     0.00021054
 H       -4.42105535     0.39711789     0.87884631
 H       -4.42109476     0.39794174    -0.87830189
 H       -4.03158708    -1.09403606    -0.00043877
