19
1-Ethenyl-2-methylbenzene
 C        0.36141213     0.98476601    -0.00651252
 C       -0.51296529    -0.12255361    -0.09208714
 C        1.73647906     0.75415234     0.07668865
 C        0.03273016    -1.41507310    -0.11008158
 C       -0.15877383     2.40381412     0.01704938
 C        2.26265515    -0.53469577     0.07072685
 C        1.40327667    -1.62632830    -0.02487720
 C       -1.96974533     0.07967496    -0.17266346
 C       -2.91083076    -0.78432310     0.21797546
 H        2.40691939     1.60600859     0.14985125
 H       -0.63426114    -2.26448080    -0.21614611
 H       -0.67360476     2.66672478    -0.91516744
 H       -0.87381500     2.56266145     0.83148134
 H        0.66183320     3.11363037     0.14878718
 H        3.33601693    -0.68340391     0.13275082
 H        1.79846522    -2.63699501    -0.04475237
 H       -2.29463826     1.03340115    -0.58219406
 H       -3.96483036    -0.55557836     0.10432439
 H       -2.67017049    -1.73946356     0.67422650
