19
1-Ethenyl-3-methylbenzene
 C       -3.36749578     0.30457603     0.01594615
 C       -2.15182181     0.85703396    -0.00999821
 C       -0.85214593     0.17040955    -0.00553924
 C        0.31824839     0.94249719    -0.01194034
 C       -0.72089097    -1.22724519     0.00105089
 C        1.59125875     0.36888481    -0.00773610
 C        0.53760058    -1.81345858     0.00098097
 C        2.82989669     1.23279545     0.01556555
 C        1.68776484    -1.02479388    -0.00441450
 H       -3.52629958    -0.76851927     0.04519527
 H       -4.26010281     0.92003179     0.00967295
 H       -2.08415213     1.94395478    -0.03589480
 H        0.22770691     2.02632762    -0.02147544
 H       -1.60442103    -1.85650736     0.00028366
 H        0.62716933    -2.89556200     0.00044046
 H        3.65295930     0.76590628    -0.53386167
 H        3.17902824     1.39855917     1.04240621
 H        2.64047092     2.21559222    -0.42574207
 H        2.66676902    -1.49582380    -0.00857393
