19
1-Ethylcyclopent-1-ene
 C        0.38196527     1.16393732    -0.08652294
 C        1.89593575     0.83679999    -0.07245489
 C       -0.27605565    -0.19803129    -0.22785442
 C        1.98600988    -0.66004005     0.32447606
 C        0.60525288    -1.17626308    -0.00244364
 C       -1.73581100    -0.35298802    -0.54148759
 C       -2.66183408     0.24658402     0.53274184
 H        0.10687106     1.85111217    -0.89655921
 H        0.06364778     1.65130423     0.84630079
 H        2.46658766     1.48979864     0.59333862
 H        2.30352878     0.96758424    -1.08017817
 H        2.20706253    -0.78597602     1.39482507
 H        2.78205410    -1.18774240    -0.21400881
 H        0.36373860    -2.23504834    -0.01390815
 H       -1.96911539    -1.41585248    -0.67255299
 H       -1.95478084     0.13563247    -1.50217648
 H       -2.49611294    -0.23326348     1.50270086
 H       -3.71310363     0.10928101     0.26079313
 H       -2.48771128     1.32013089     0.65711578
