16
Hex-1-yne
 C        2.96923504    -0.50852174     0.00000003
 H        3.92444596     0.02580471     0.00000010
 H        2.94901603    -1.15582772     0.88374682
 H        2.94901616    -1.15582771    -0.88374676
 C        1.78589703     0.46392298    -0.00000004
 H        1.85061364     1.12136472    -0.87741305
 H        1.85061359     1.12136478     0.87741294
 C        0.42966523    -0.24855129    -0.00000004
 H        0.35042715    -0.90149392     0.87754146
 H        0.35042712    -0.90149389    -0.87754157
 C       -0.75774561     0.73604042     0.00000001
 H       -0.68635497     1.39342185    -0.87702874
 H       -0.68635492     1.39342182     0.87702879
 C       -2.05494122     0.06828015     0.00000005
 C       -3.11140358    -0.50581474    -0.00000001
 H       -4.04925689    -1.00450462    -0.00000010
