15
Pent-1-ene
 C       -2.09114283    -0.66995329     0.00000006
 C       -1.48315682     0.51363588    -0.00000008
 C        0.00053155     0.76878634     0.00000009
 C        0.90135701    -0.46918364    -0.00000010
 H       -3.17343494    -0.74773049    -0.00000008
 H       -1.54318904    -1.60663474     0.00000032
 H       -2.09768543     1.41413996    -0.00000034
 H        0.24542397     1.39657032     0.87069984
 C        2.39097140    -0.11201009     0.00000002
 H        0.67168511    -1.08613100     0.87758157
 H        0.67168511    -1.08613067    -0.87758199
 H        0.24542407     1.39657069    -0.87069937
 H        3.01611579    -1.01041804     0.00000002
 H        2.65750661     0.47868874    -0.88373785
 H        2.65750647     0.47868864     0.88373801
