13
Pent-1-yne
 H       -3.15155420    -0.83062507    -0.00000005
 C       -2.43606303    -0.00278019     0.00000002
 C       -0.99543281    -0.51921664    -0.00000002
 C        0.03729678     0.62700375    -0.00000002
 C        1.41752369     0.15443526     0.00000001
 C        2.54620067    -0.26000927     0.00000001
 H       -2.63813117     0.61219225     0.88421335
 H       -2.63813117     0.61219240    -0.88421320
 H       -0.82075592    -1.15214829    -0.87716555
 H       -0.82075589    -1.15214833     0.87716546
 H       -0.12924936     1.26714863     0.87699043
 H       -0.12924933     1.26714859    -0.87699049
 H        3.54662026    -0.61700802     0.00000005
