21
(1R,2S)-1,2-dimethylcyclopentane
 C        0.73000274    -0.47491900    -0.45546614
 C       -0.04175320     0.86879903    -0.50431033
 C       -0.12193633    -1.35887739     0.48576426
 C       -1.50438192     0.38590142    -0.59637585
 C       -1.58512366    -0.85710247     0.32972253
 C        2.21054168    -0.40240095    -0.08226384
 C        0.19195578     1.77283746     0.71487961
 H        0.65981010    -0.90355957    -1.46553913
 H        0.23757623     1.43245075    -1.40302372
 H       -0.01381945    -2.42146974     0.24776485
 H        0.21863239    -1.23828452     1.52064790
 H       -2.22545838     1.16332812    -0.32434420
 H       -1.72461403     0.09436295    -1.62977366
 H       -2.00866569    -0.59315598     1.30342404
 H       -2.23987348    -1.62432249    -0.09321012
 H        2.67327176    -1.39431560    -0.12932101
 H        2.76536261     0.25278069    -0.76337836
 H        2.35223141    -0.02425176     0.93578936
 H        1.23325813     2.10261663     0.78219316
 H       -0.43424793     2.66902723     0.65022009
 H       -0.05637730     1.26780519     1.65507447
