27
(1R,2S)-1-methyl-2-propan-2-ylcyclopentane
 C        0.15239405    -0.16926384     0.39397522
 C       -0.91798783     0.81134467    -0.19109127
 C       -0.53167028    -1.57485865     0.38283643
 C       -2.24048996     0.01861980    -0.18032262
 C       -1.80560809    -1.42020915    -0.46820909
 C        1.51009133    -0.16287795    -0.35018165
 C       -1.02379088     2.15168394     0.54158581
 C        2.09266420     1.24543811    -0.54586155
 C        2.54687744    -1.03775533     0.37385530
 H        0.35395042     0.12276949     1.43397521
 H       -0.66267889     1.00658207    -1.24232887
 H       -0.80410206    -1.86994053     1.40219213
 H        0.12634385    -2.35829408    -0.00332043
 H       -2.97136529     0.41141392    -0.89492700
 H       -2.69842967     0.07679146     0.81692935
 H       -1.56601965    -1.52930317    -1.53366897
 H       -2.57018575    -2.16640926    -0.23138148
 H        1.33678062    -0.59450976    -1.34823764
 H       -1.27643630     1.99438645     1.59712871
 H       -1.80940114     2.77829316     0.10416554
 H       -0.08941858     2.71894632     0.50628643
 H        2.27094739     1.73395747     0.41983984
 H        1.43535935     1.89200806    -1.13322999
 H        3.05408219     1.19290949    -1.06823403
 H        2.77093292    -0.62587982     1.36564773
 H        3.48686215    -1.07572200    -0.18716190
 H        2.20273939    -2.06631287     0.51323905
