27
(1R,2S,4R)-4-ethyl-1,2-dimethylcyclopentane
 C       -0.93566069     0.12411361    -0.41170072
 C        1.11283172    -0.88660405     0.51190814
 C        1.33897920     0.64585620     0.45916904
 C       -0.42537924    -0.96923328     0.56531906
 C        0.22959495     1.15667101    -0.49188590
 C       -2.27614372     0.74823284    -0.00073827
 C        1.69416241    -1.65169250    -0.68609616
 C        2.74673559     1.11897350     0.09709742
 C       -3.44198748    -0.24580178     0.03250647
 H       -1.07432884    -0.32893491    -1.40156101
 H        1.55530313    -1.30320626     1.42539070
 H        1.11038323     1.02153796     1.46650394
 H       -0.76550865    -0.73597020     1.58320060
 H       -0.80502252    -1.96693038     0.32292963
 H        0.61226418     1.22898483    -1.51645623
 H       -0.09981048     2.16395762    -0.21471310
 H       -2.16225195     1.21568558     0.98778871
 H       -2.51708593     1.56303196    -0.69606846
 H        1.31527314    -1.27138962    -1.64122830
 H        2.78621674    -1.58736886    -0.71534924
 H        1.42788276    -2.71246101    -0.62715015
 H        3.02634177     0.81514437    -0.91736267
 H        2.81405158     2.21159874     0.14085171
 H        3.49650195     0.71468362     0.78672698
 H       -4.37848967     0.25011279     0.30738559
 H       -3.58862612    -0.71332223    -0.94808502
 H       -3.26666598    -1.04756329     0.75729340
