27
(1S,2S,4S)-4-ethyl-1,2-dimethylcyclopentane
 C       -1.00788628    -0.40225258    -0.27708757
 C        1.13097125     0.88751604    -0.47524272
 C        1.38685050    -0.65372419    -0.45841681
 C       -0.42165921     1.02901809    -0.38741525
 C        0.16663833    -1.21983161     0.28367187
 C       -2.30194731    -0.50432538     0.53634304
 C        1.82649715     1.66078806     0.65361422
 C        2.74105760    -1.11723756     0.07984257
 C       -3.48617282     0.24682290    -0.08296803
 H       -1.21455196    -0.77310618    -1.29211768
 H        1.49406524     1.29764023    -1.42463139
 H        1.31094255    -0.99747706    -1.49995172
 H       -0.83408286     1.57801889    -1.23895833
 H       -0.68902793     1.60308823     0.50915755
 H        0.26512454    -1.04424450     1.36508719
 H        0.04365277    -2.29930766     0.14283964
 H       -2.56846577    -1.56320578     0.65282170
 H       -2.11517967    -0.12351165     1.55028700
 H        1.53637650     1.28251408     1.64088896
 H        2.91709152     1.60471389     0.58051777
 H        1.54621395     2.71912467     0.61606952
 H        2.87178458    -0.85497798     1.13473167
 H        2.83554241    -2.20554655    -0.00204852
 H        3.57168358    -0.67253090    -0.47975686
 H       -3.70715555    -0.12723065    -1.08928888
 H       -4.39135520     0.12863385     0.52129627
 H       -3.28164675     1.31929302    -0.16694148
