27
(1S,2S)-1,2-diethylcyclopentane
 C       -0.53604109     0.01197558    -0.17360297
 C        0.87103244    -0.02499204     0.51523762
 C        1.33241393     1.45801891     0.59691396
 C        0.48798695     2.20068708    -0.45088803
 C       -0.87742942     1.51260475    -0.33331942
 C       -1.60891596    -0.79531238     0.57035320
 C       -2.96665591    -0.83117258    -0.14015521
 C        1.89245830    -0.90228624    -0.23040268
 C        1.52790949    -2.38879626    -0.30305533
 H       -0.43202360    -0.41498225    -1.18183115
 H        0.76432267    -0.43157782     1.52929158
 H        1.11557625     1.86554620     1.59134479
 H        2.40991000     1.56731253     0.43642293
 H        0.44646691     3.28160443    -0.28477212
 H        0.90193359     2.04239432    -1.45502856
 H       -1.53724890     1.71113641    -1.18323107
 H       -1.39380301     1.87261267     0.56766193
 H       -1.25229225    -1.82258836     0.71563798
 H       -1.73303289    -0.37301750     1.57759675
 H       -2.87483029    -1.26139799    -1.14423229
 H       -3.68866813    -1.43782027     0.41595712
 H       -3.39149520     0.17202046    -0.24885008
 H        2.02813182    -0.50850211    -1.24762589
 H        2.86649846    -0.80028867     0.26552560
 H        0.59113260    -2.55337995    -0.84538931
 H        2.30820450    -2.96008957    -0.81641372
 H        1.40955749    -2.81526145     0.69972409
