27
(1R,2R)-1-methyl-2-propylcyclopentane
 C        1.28939406     0.72746103     0.28882138
 C       -0.03360174    -0.00384001    -0.03387369
 C        0.32066239    -1.50042754     0.14848515
 C        1.85184955    -1.62125976    -0.10476073
 C        2.34564795    -0.17981291    -0.36525894
 C        1.35457928     2.18425804    -0.16845127
 C       -1.23611847     0.46356824     0.79457589
 C       -2.57065483    -0.23060292     0.47162591
 C       -3.10333049     0.05074213    -0.93836786
 H        1.43289398     0.69387587     1.38046827
 H       -0.24359564     0.17683636    -1.09859918
 H       -0.26104606    -2.14449076    -0.51730778
 H        0.07889128    -1.81301305     1.17149063
 H        2.08086825    -2.28471614    -0.94360637
 H        2.35018338    -2.04675109     0.77199282
 H        3.35616443     0.00081830     0.01500306
 H        2.37033473     0.02489686    -1.44377220
 H        0.59589175     2.80197049     0.32316407
 H        1.19653459     2.25986496    -1.25126905
 H        2.33184977     2.62605317     0.05485517
 H       -1.36738131     1.54691576     0.66798423
 H       -1.00444546     0.30582998     1.85751580
 H       -3.31748150     0.09835498     1.20501186
 H       -2.46609786    -1.31357729     0.61388476
 H       -3.21943493     1.12739318    -1.10856463
 H       -4.08166157    -0.41667660    -1.08965069
 H       -2.43323613    -0.33486791    -1.71349938
