27
(1R,3S)-1-methyl-3-propylcyclopentane
 C       -0.35706035    -0.44844051     0.18929490
 C        1.87664423     0.47718483     0.36601972
 C        0.49939197     0.75023820    -0.26069266
 C        0.63132929    -1.64962564     0.14552848
 C        2.06108627    -1.04184462     0.14650439
 C       -1.63467233    -0.68809590    -0.62416159
 C        3.01696270     1.33473229    -0.18042953
 C       -2.67389281     0.44477448    -0.58231555
 C       -3.28944695     0.68708101     0.80099705
 H       -0.63469343    -0.27968913     1.23823924
 H        1.79110771     0.66108388     1.44696512
 H        0.08311751     1.71839941     0.03656133
 H        0.58799208     0.75693759    -1.35765092
 H        0.46602158    -2.24313813    -0.76068058
 H        0.46817877    -2.32537695     0.99068988
 H        2.71334383    -1.49113020     0.90173236
 H        2.54479719    -1.20969150    -0.82346515
 H       -2.10901888    -1.61685719    -0.27610966
 H       -1.34848672    -0.86834183    -1.66999006
 H        3.13010894     1.19050988    -1.26169755
 H        3.97214883     1.07628887     0.29006125
 H        2.83817558     2.40100239    -0.00332664
 H       -3.47669669     0.20337761    -1.29020429
 H       -2.21969849     1.37404505    -0.94884262
 H       -3.75257015    -0.22644818     1.19170071
 H       -4.06421274     1.45931052     0.75708473
 H       -2.54156741     1.01517587     1.53005989
