24
(1S,3S)-1,3-dimethylcyclohexane
 C       -1.25616857    -0.65333192     0.46922209
 C        1.17802331    -0.23732032    -0.29075821
 C        0.23381716    -1.01624472     0.64377033
 C       -1.44437821     0.87337554     0.59224348
 C        0.95238040     1.27587147    -0.12910047
 C       -0.51720025     1.66477738    -0.34301113
 C       -1.85100246    -1.21619333    -0.83199169
 C        2.64153603    -0.61991493    -0.04610270
 H       -1.80634730    -1.12154976     1.29645669
 H        0.93258986    -0.50218225    -1.32954106
 H        0.37353747    -2.09540164     0.49887183
 H        0.52886872    -0.80502160     1.68204590
 H       -1.23161806     1.17075409     1.62840675
 H       -2.49188875     1.13793629     0.40283747
 H        1.59798140     1.82714164    -0.82403419
 H        1.26234162     1.57372507     0.88396384
 H       -0.79380308     1.48117145    -1.38947205
 H       -0.65165263     2.74002108    -0.17680069
 H       -1.37110786    -0.80494875    -1.72541976
 H       -2.92043647    -0.98880097    -0.90098829
 H       -1.73854994    -2.30516802    -0.87245302
 H        3.31273058    -0.08310333    -0.72559742
 H        2.80349688    -1.69341762    -0.19336960
 H        2.94389573    -0.37676465     0.97982534
