27
(1S,3S)-1-methyl-3-propylcyclopentane
 C       -1.76635273    -0.25681383     0.51639267
 C       -0.60818400    -0.95817129    -0.25931907
 C        0.23800545     0.17204629    -0.90867715
 C       -0.15353568     1.44030984    -0.11875902
 C       -1.65320490     1.23450779     0.12784148
 C       -3.14652776    -0.86500119     0.26352006
 C        1.74354218    -0.10559669    -1.10607879
 C        2.56082382    -0.72308314     0.04492750
 C        2.70413829     0.11904529     1.31866187
 H       -1.55321230    -0.33565051     1.59049645
 H       -0.99579984    -1.64397352    -1.02078376
 H       -0.00972361    -1.56655024     0.42528734
 H       -0.16420753     0.32766995    -1.91981530
 H        0.07537904     2.35871074    -0.66987840
 H        0.37791625     1.49565538     0.83701853
 H       -2.06983884     1.90069122     0.89016321
 H       -2.20921813     1.41892153    -0.80173354
 H       -3.92696291    -0.32952090     0.81591419
 H       -3.18397604    -1.91601142     0.57054141
 H       -3.40285618    -0.82080825    -0.80191658
 H        2.22363727     0.83475560    -1.41243549
 H        1.84821059    -0.78078609    -1.96587288
 H        3.56451950    -0.92383640    -0.35127352
 H        2.15116591    -1.70654089     0.30629496
 H        3.04331487     1.13558151     1.08900317
 H        3.43757551    -0.32947364     1.99723603
 H        1.76204130     0.19958583     1.86831323
