20
(1Z,5Z)-cycloocta-1,5-diene
 C       -0.94759428     1.22180116     0.67405327
 C       -1.90544947     0.23344713    -0.02399658
 C        1.90544947    -0.23344680    -0.02399652
 C        0.94759464    -1.22180161     0.67405280
 C        0.18971775     1.69237240    -0.20487211
 C       -1.34688500    -1.08820895    -0.48463772
 C        1.34688483     1.08820917    -0.48463777
 C       -0.18971799    -1.69237239    -0.20487215
 H       -0.58206687     0.78966747     1.60751691
 H       -1.53862920     2.09671662     0.96818215
 H       -2.76040713     0.04072952     0.64235032
 H       -2.34011618     0.73267100    -0.90174447
 H        2.76040691    -0.04072899     0.64235061
 H        2.34011662    -0.73267031    -0.90174441
 H        0.58206776    -0.78966910     1.60751722
 H        1.53863001    -2.09671724     0.96818026
 H        0.01659056     2.65197605    -0.69039039
 H       -2.02017869    -1.62153081    -1.15615150
 H        2.02017819     1.62153083    -1.15615203
 H       -0.01659152    -2.65197645    -0.69038986
