26
2,2,3,3-Tetramethylbutane
 C        0.79312710     0.00046173    -0.00001185
 C       -0.79312522    -0.00015406     0.00003311
 C        1.35607457    -0.82689145    -1.17725728
 C        1.35608557    -0.60578979     1.30474345
 C        1.35518100     1.43377822    -0.12759061
 C       -1.35604676     0.32990700    -1.40017668
 C       -1.35484293    -1.37847717     0.41417395
 C       -1.35644253     1.04730579     0.98611392
 H        2.44408605    -0.91350527    -1.08272891
 H        0.95132325    -1.84328949    -1.20209008
 H        1.15082871    -0.35868363    -2.14397007
 H        2.44442675    -0.48324935     1.33098136
 H        0.95375485    -0.11805644     2.19794057
 H        1.14842348    -1.67660500     1.38306642
 H        0.95307596     1.96257488    -0.99727917
 H        1.14640170     2.03742261     0.76005739
 H        2.44362522     1.39611067    -0.24611784
 H       -1.14400153    -0.46099949    -2.12496467
 H       -2.44490612     0.43766979    -1.34575781
 H       -0.95773418     1.26819675    -1.79863023
 H       -1.14475865    -1.60961823     1.46220948
 H       -2.44337486    -1.38762397     0.29104064
 H       -0.95319876    -2.19205057    -0.19766220
 H       -0.95605931     0.92498108     1.99720343
 H       -1.14702158     2.07056288     0.66216868
 H       -2.44501964     0.94449261     1.05419958
