26
2,2,4-Trimethylpentane
 C        1.19830829    -0.02712920    -0.00698175
 C       -0.18458050    -0.30121437    -0.65724515
 C       -1.45473676    -0.04787309     0.19616548
 C        2.27600387    -0.24203301    -1.08740953
 C        1.31286323     1.41282193     0.52523737
 C        1.45498095    -1.01842300     1.14450312
 C       -2.50717558    -1.13909107    -0.05628723
 C       -2.06589855     1.33793440    -0.06764830
 H       -0.17940314    -1.35032150    -0.98110077
 H       -0.25929899     0.29068574    -1.58002791
 H       -1.18285926    -0.09784558     1.25848715
 H        2.14999207     0.46138354    -1.91818793
 H        2.22804799    -1.25668766    -1.49869343
 H        3.28116262    -0.09623043    -0.67587211
 H        2.31680835     1.59494125     0.92537068
 H        1.13521267     2.14698847    -0.26851913
 H        0.59986511     1.60789162     1.33235748
 H        2.44802071    -0.85902759     1.57946742
 H        1.40912463    -2.05435473     0.78988766
 H        0.72420877    -0.90904544     1.95229617
 H       -2.12249525    -2.13140592     0.20206795
 H       -3.41314871    -0.96418752     0.53448231
 H       -2.80018584    -1.16150679    -1.11314055
 H       -2.93360621     1.51546842     0.57733769
 H       -2.40588022     1.41559619    -1.10769368
 H       -1.34996954     2.14541555     0.10657173
