23
2,2-Dimethylpentane
 C        0.93642953    -0.02510495     0.00000007
 C       -0.50817195    -0.58617468     0.00000350
 C       -1.65876076     0.42973568    -0.00000035
 C        1.90799249    -1.22088077     0.00000918
 C        1.19720673     0.82432085    -1.25821334
 C        1.19720578     0.82433968     1.25820098
 C       -3.03214167    -0.25148658     0.00000017
 H       -0.62176993    -1.24019723    -0.87650088
 H       -0.62176903    -1.24018931     0.87651390
 H       -1.58317651     1.08314642     0.87733183
 H       -1.58317493     1.08314193    -0.87733576
 H        2.95013288    -0.88212583     0.00000645
 H        1.76175235    -1.85053285     0.88501122
 H        1.76175211    -1.85054635    -0.88498321
 H        2.24198876     1.15281122    -1.29381778
 H        0.99840413     0.25082976    -2.17091883
 H        0.57146626     1.72188588    -1.28336089
 H        2.24198803     1.15282974     1.29380177
 H        0.57146599     1.72190557     1.28333391
 H        0.99840154     0.25086267     2.17091497
 H       -3.15878394    -0.88749831     0.88346954
 H       -3.84331014     0.48369894    -0.00000220
 H       -3.15878252    -0.88750246    -0.88346642
