26
2,3,3-Trimethylpentane
 C        0.24513212     0.00009963     0.38197764
 C       -1.31459784     0.00001160     0.20264721
 C        0.96188632    -0.00050628    -0.99351823
 C        0.65462517     1.24680134     1.19617036
 C        0.65462709    -1.24590026     1.19724458
 C       -1.87468256    -1.25277247    -0.49492096
 C       -1.87477789     1.25248510    -0.49540253
 C        2.49708583    -0.00022964    -0.96199602
 H       -1.71858355     0.00020056     1.22594769
 H        0.63167513     0.87552955    -1.56431528
 H        0.63196584    -0.87725857    -1.56337999
 H        1.70284984     1.19081194     1.50436820
 H        0.05245049     1.33116088     2.10818281
 H        0.53077430     2.17296794     0.62710085
 H        0.53058343    -2.17257750     0.62904989
 H        0.05259734    -1.32935595     2.10943533
 H        1.70290954    -1.18974450     1.50521659
 H       -1.55714029    -1.31297173    -1.54140892
 H       -2.96948000    -1.22110951    -0.49360399
 H       -1.57542605    -2.17935651     0.00120850
 H       -1.57581668     2.17926417     0.00053825
 H       -2.96956939     1.22060195    -0.49431701
 H       -1.55702085     1.31246088    -1.54183881
 H        2.89791546     0.88411176    -0.45727188
 H        2.89479318    -0.00076821    -1.98211133
 H        2.89821654    -0.88383620    -0.45622335
