26
2,3-Dimethylhexane
 C       -2.74923281    -0.66673221    -0.72993503
 C       -2.09786356    -0.31458054     0.61274291
 C       -1.06259722     0.82056103     0.53814218
 C        0.16972257     0.58741566    -0.36351085
 C        1.00999871     1.87482421    -0.41605513
 C        0.99223331    -0.67200440     0.02404331
 C        2.04140264    -1.02209420    -1.04358507
 C        1.64807618    -0.58698163     1.41164747
 H       -2.02365383    -1.06961362    -1.44380938
 H       -3.53375200    -1.41930448    -0.60094751
 H       -3.20798006     0.21659961    -1.18924931
 H       -1.64479149    -1.21447221     1.04639239
 H       -2.88146742    -0.01039272     1.31806471
 H       -0.72403588     1.05774586     1.55526207
 H       -1.57147795     1.72633250     0.17981935
 H       -0.19894285     0.40540475    -1.38297260
 H        0.40802043     2.70805269    -0.79385836
 H        1.87925983     1.77518955    -1.07262025
 H        1.37218924     2.16096973     0.57750772
 H        0.28468673    -1.51111221     0.05101483
 H        1.59064893    -1.09009182    -2.03992396
 H        2.51141446    -1.98675505    -0.82373651
 H        2.84128730    -0.27524176    -1.08922794
 H        2.40588181     0.20300419     1.45114413
 H        2.14899636    -1.52992287     1.65556919
 H        0.91833920    -0.38938436     2.20281635
