21
2,3-Dimethylpent-1-ene
 C       -0.25018214    -0.58127176    -0.45003500
 C       -1.54060456    -0.18145679     0.30013785
 C        0.93838048     0.29791705    -0.09178314
 C        0.05905672    -2.07479220    -0.23081390
 C       -2.00775857     1.24980708     0.02070410
 C        1.41519444     0.29515836     1.34129508
 C        1.54729288     1.04219039    -1.01668606
 H       -0.43933895    -0.43746463    -1.52216349
 H       -1.39538414    -0.32187147     1.37914242
 H       -2.33141032    -0.88586173     0.01224633
 H        0.97228998    -2.37091708    -0.75631332
 H       -0.76348709    -2.69456867    -0.60317535
 H        0.18990981    -2.30890913     0.83112887
 H       -1.25104559     1.98340473     0.31518810
 H       -2.93006985     1.47693025     0.56474712
 H       -2.20547637     1.39715655    -1.04711161
 H        0.63056093     0.63229823     2.02924070
 H        2.27824131     0.95330061     1.46934640
 H        1.70609373    -0.70971292     1.66911138
 H        1.21453877     1.05356638    -2.05036856
 H        2.40307209     1.66645663    -0.77670319
