21
2,3-Dimethylpent-2-ene
 C        0.17795971     0.44556815    -0.21321160
 C        1.47885632    -0.24565156    -0.58943045
 C       -0.98084403    -0.21189638    -0.02993194
 C        0.34282291     1.94088592    -0.05749611
 C        2.33594405    -0.62947201     0.63107880
 C       -2.29344718     0.44682629     0.32753067
 C       -1.12232275    -1.71228250    -0.15735458
 H        1.29534465    -1.13750394    -1.19486545
 H        2.06064178     0.43295378    -1.22671621
 H        1.21485172     2.16573714     0.56972060
 H        0.53658647     2.41364098    -1.03010180
 H       -0.51605194     2.44034003     0.39084465
 H        1.81897739    -1.36477517     1.25561665
 H        3.29388075    -1.05997398     0.32047010
 H        2.55021771     0.24241051     1.25802148
 H       -3.06776004     0.16710236    -0.39935044
 H       -2.65260256     0.09576802     1.30449982
 H       -2.25201297     1.53535438     0.35838306
 H       -0.18426446    -2.23104473    -0.35464784
 H       -1.54403580    -2.13351197     0.76497883
 H       -1.82709099    -1.97106459    -0.95935136
