16
Hexa-2,3-diene
 C        1.69673455    -0.63046836    -0.15080881
 C        2.92743060     0.27988243    -0.28557022
 C        0.59359203     0.00710647     0.66511701
 C       -0.60368863     0.28038388     0.22444247
 C       -1.80196247     0.54471969    -0.21940624
 C       -2.98141572    -0.39434152    -0.13938478
 H        1.31141068    -0.89201219    -1.14121754
 H        1.99909993    -1.57083469     0.33042432
 H        3.32820816     0.54961050     0.69771415
 H        2.67187369     1.20806452    -0.80608787
 H        3.72439134    -0.21872936    -0.84663406
 H        0.84746851     0.26713473     1.69468174
 H       -1.98498751     1.51423781    -0.68479860
 H       -3.37320670    -0.61696366    -1.13933689
 H       -3.80226513     0.05663140     0.43140792
 H       -2.70606204    -1.33639276     0.33997359
