24
(2E)-3-ethylhex-2-ene
 C        0.98645356    -0.05370231    -0.59676285
 C       -0.43561151    -0.13953461    -0.08019487
 C        2.05174995    -0.27435478     0.49572607
 C       -0.94909958     1.08966900     0.64299581
 C       -1.16093656    -1.24632291    -0.28161127
 C        3.48219851    -0.13791861    -0.03458819
 C       -1.51595557     2.15002754    -0.32010064
 C       -2.56754549    -1.53001509     0.16255815
 H        1.15721763     0.93036736    -1.05680898
 H        1.13818908    -0.79559019    -1.38990118
 H        1.89683626     0.43930029     1.31453671
 H        1.90754302    -1.27141237     0.92956239
 H       -1.71927998     0.82017532     1.37212983
 H       -0.13107946     1.53917132     1.21960236
 H       -0.69189732    -2.05726990    -0.84020652
 H        3.65983930     0.86348092    -0.44294424
 H        4.21948272    -0.31063483     0.75602861
 H        3.67787636    -0.85938528    -0.83598742
 H       -2.38148989     1.75874465    -0.86370665
 H       -1.83114384     3.04636450     0.22429964
 H       -0.77055300     2.45517075    -1.06185431
 H       -3.01197266    -0.70896077     0.72956680
 H       -3.21737914    -1.72605197    -0.70024061
 H       -2.60736726    -2.43090138     0.78854047
