24
(2E)-3-methylhept-2-ene
 C        1.45516702     1.65945022    -0.08613452
 C        1.20571230     0.20742927     0.24145684
 C        2.10108473    -0.77283262     0.07028604
 C        3.49698528    -0.68745975    -0.47700358
 C       -0.16590126    -0.10423876     0.80452385
 C       -1.31789966     0.05233175    -0.20732482
 C       -2.68760809    -0.29318614     0.38836696
 C       -3.83520448    -0.14200086    -0.61489678
 H        1.25938615     2.28954420     0.79126654
 H        0.78197256     2.01297669    -0.87668653
 H        2.47730089     1.85409104    -0.41461182
 H        1.79548540    -1.77874518     0.36000745
 H        3.79172870     0.32675063    -0.75461009
 H        3.60494426    -1.31913984    -1.36836635
 H        4.22667037    -1.05918272     0.25397470
 H       -0.36668407     0.55443716     1.66307710
 H       -0.17494049    -1.13014539     1.19148622
 H       -1.12054828    -0.59217259    -1.07430074
 H       -1.34394349     1.08078788    -0.58998533
 H       -2.87513596     0.34831437     1.25993694
 H       -2.66709524    -1.32289238     0.76974074
 H       -3.69115361    -0.79599473    -1.48230567
 H       -3.90348200     0.88678468    -0.98629838
 H       -4.79900986    -0.39683680    -0.16249269
