21
(2E)-4,4-dimethylpent-2-ene
 C        0.90041972     0.01506232    -0.00000000
 C        1.06731356    -1.51213875    -0.00000005
 C        1.58051619     0.60330702     1.25701245
 C        1.58051631     0.60330711    -1.25701235
 C       -0.55285632     0.44382215    -0.00000004
 C       -1.63897092    -0.32699176    -0.00000002
 C       -3.05112224     0.18491654    -0.00000000
 H       -0.69379153     1.52732768    -0.00000008
 H       -1.53231340    -1.41027694     0.00000001
 H        0.61110889    -1.96533348     0.88615932
 H        2.12988947    -1.77751305    -0.00000007
 H        0.61110887    -1.96533343    -0.88615943
 H        1.47893313     1.69371426     1.28737629
 H        2.65056388     0.36639585     1.26717590
 H        1.13262664     0.19960283     2.17072957
 H        1.47893324     1.69371435    -1.28737612
 H        1.13262687     0.19960299    -2.17072955
 H        2.65056401     0.36639596    -1.26717570
 H       -3.60408651    -0.17067588     0.87885949
 H       -3.60408660    -0.17067604    -0.87885937
 H       -3.08251786     1.27869146    -0.00000010
