21
(2E)-4-methylhex-2-ene
 C       -0.53632209     0.28604180    -0.22586677
 C       -1.47228762    -0.78598040     0.37929206
 C       -1.03471007     1.71728126     0.05105614
 C        0.86459165     0.11059596     0.30030590
 C       -2.89006217    -0.80159670    -0.20314587
 C        1.93835863    -0.18581643    -0.42956940
 C        3.33032816    -0.36101285     0.10451463
 H        0.98033078     0.24294904     1.37871036
 H        1.82076077    -0.31594603    -1.50635742
 H       -0.51263669     0.13521333    -1.31440357
 H       -1.52254844    -0.64057305     1.46741231
 H       -1.00985654    -1.76828487     0.22545768
 H       -0.35526551     2.45504553    -0.38613829
 H       -1.08623956     1.90963647     1.12962578
 H       -2.03119809     1.88878614    -0.36679568
 H       -3.43424334     0.12303824     0.01195402
 H       -3.47276968    -1.62856169     0.21532995
 H       -2.86853564    -0.92923355    -1.29159172
 H        4.02730377     0.35014676    -0.35707732
 H        3.71890501    -1.36357263    -0.11563148
 H        3.36587176    -0.21470534     1.18828232
