24
(2E)-oct-2-ene
 C       -1.81018582    -0.71310308     0.13774292
 C       -0.67758340    -1.58346552    -0.44401932
 C       -1.86464409     0.72363394    -0.40230398
 C        0.66062480    -1.55471295     0.33123275
 C       -2.99290843     1.55070569     0.22142779
 C        1.33258450    -0.21281727     0.43085647
 C        2.46876808     0.12111869    -0.18064783
 C        3.14693008     1.45650826    -0.08502233
 H        0.84574158     0.52925500     1.06416140
 H        2.96577877    -0.62312019    -0.80480317
 H       -2.77444898    -1.19138721    -0.07859844
 H       -1.73158914    -0.69231727     1.23421576
 H       -0.49455951    -1.29475763    -1.48711294
 H       -1.00898044    -2.62871636    -0.47008978
 H       -1.99805821     0.68498576    -1.49169153
 H       -0.90477201     1.22521775    -0.23708364
 H        1.34896981    -2.26390407    -0.14441401
 H        0.47176170    -1.93788501     1.34479905
 H       -3.96948097     1.08527128     0.04482480
 H       -3.02645047     2.56247274    -0.19539069
 H       -2.86458542     1.64207999     1.30611070
 H        3.24969780     1.92337989    -1.07298211
 H        4.16258087     1.36050600     0.31974532
 H        2.58994007     2.14472916     0.55797560
