15
2-Methylbut-1-ene
 C       -0.83880566    -0.39393165     0.56902792
 C        0.56501859    -0.09503501     0.09026598
 C       -1.93992368     0.07731794    -0.39811583
 C        0.95925240     1.35899741     0.01263985
 C        1.41332881    -1.07020294    -0.23832648
 H       -0.94118418    -1.47211602     0.73245607
 H       -0.99802655     0.08818515     1.54426130
 H       -2.93014434    -0.18642008    -0.01348924
 H       -1.82144776    -0.39118789    -1.38038841
 H       -1.91998403     1.16230050    -0.53982031
 H        1.99794532     1.47693006    -0.30625838
 H        0.84222726     1.84880586     0.98814155
 H        0.32602211     1.91328514    -0.69048357
 H        1.13154759    -2.11699167    -0.17400507
 H        2.42141048    -0.85999367    -0.58300244
