24
2-Methylhept-2-ene
 C       -1.68806585     0.87606261    -0.25439979
 C       -0.26911550     1.37497620     0.09029310
 C       -2.00537243    -0.51795400     0.29812887
 C        0.81498909     0.58524396    -0.59081553
 C       -3.40972877    -1.00372248    -0.07241117
 C        1.83095631    -0.09816680    -0.04998800
 C        2.82437344    -0.82512646    -0.92366361
 C        2.10607583    -0.21452391     1.42821745
 H       -2.42148181     1.59589167     0.13235213
 H       -1.81259367     0.87117767    -1.34645203
 H       -0.14066281     1.37447354     1.17789263
 H       -0.19011920     2.42529518    -0.22568075
 H       -1.89861550    -0.50357834     1.39145562
 H       -1.25719283    -1.23048636    -0.06974420
 H        0.74078097     0.58275769    -1.67994005
 H       -4.17958649    -0.32369031     0.31003317
 H       -3.61137872    -1.99834027     0.33836825
 H       -3.53399711    -1.06193971    -1.15978502
 H        2.84903520    -1.89737195    -0.68768202
 H        3.84384020    -0.45099563    -0.75949141
 H        2.58966757    -0.71581839    -1.98579173
 H        1.36831480     0.29834901     2.04709997
 H        3.09433558     0.19774638     1.67135697
 H        2.12933769    -1.26845750     1.73471404
