19
2-Methylhex-3-yne
 C        1.63039947    -0.00001411    -0.42447888
 C        2.33830799     1.27246473     0.08285684
 C        2.33827055    -1.27249178     0.08291216
 C        0.21374287     0.00001798    -0.05151791
 C       -2.36090708     0.00004434     0.64269670
 C       -3.30007704    -0.00004979    -0.57801059
 C       -0.94652879     0.00004273     0.27626656
 H        1.69013174    -0.00003648    -1.52238527
 H        3.38497295     1.28072626    -0.23917819
 H        2.31521304     1.31490987     1.17640439
 H        1.85085808     2.17283256    -0.30063103
 H        1.85079743    -2.17286246    -0.30054027
 H        2.31517106    -1.31489108     1.17646168
 H        3.38493666    -1.28079525    -0.23911920
 H       -2.57642550     0.87613465     1.26847790
 H       -2.57639651    -0.87596546     1.26860045
 H       -3.12978798     0.88405012    -1.19868492
 H       -4.34628885    -0.00003859    -0.25667702
 H       -3.12976938    -0.88423195    -1.19856260
