24
(2Z)-3,4,4-trimethylpent-2-ene
 C        0.75567122    -0.34793099     0.00000061
 C       -0.34436482     0.74126162    -0.00000608
 C        2.17781585     0.25808831    -0.00004956
 C        0.64723286    -1.22231371    -1.27128543
 C        0.64728293    -1.22223477     1.27134543
 C        0.10247923     2.19012156    -0.00000317
 C       -1.66593335     0.50797093    -0.00000629
 C       -2.46195269    -0.76801133     0.00000215
 H       -2.30391240     1.39234114    -0.00001383
 H        2.91528724    -0.55151117    -0.00003900
 H        2.36725441     0.87131522    -0.88577487
 H        2.36729404     0.87137461     0.88562580
 H        1.44237664    -1.97710886    -1.28230942
 H       -0.30839473    -1.74394211    -1.34483640
 H        0.75684276    -0.60785907    -2.17118119
 H        0.75693739    -0.60772609     2.17119892
 H       -0.30834759    -1.74384853     1.34496926
 H        1.44242011    -1.97703674     1.28238136
 H       -0.75968718     2.86149490    -0.00000906
 H        0.71276974     2.43436562     0.87758426
 H        0.71278531     2.43436770    -0.87757869
 H       -3.12097602    -0.80455728     0.87755281
 H       -3.12086510    -0.80464642    -0.87762883
 H       -1.86377649    -1.67767429     0.00008673
