24
(2Z)-3,4-dimethylhex-2-ene
 C       -0.52517369    -0.25540890    -0.62947647
 C       -1.80315068     0.43806720    -0.10523620
 C        0.55735571    -0.38272681     0.43274598
 C       -0.87100924    -1.62388142    -1.25080121
 C       -1.57173973     1.86282537     0.40626052
 C        0.19435647    -1.15532860     1.68252436
 C        1.78929462     0.13076315     0.31377165
 C        2.38804971     0.92423159    -0.81305654
 H       -0.13689142     0.37339037    -1.43775804
 H       -2.25640184    -0.17235410     0.68601911
 H       -2.53596021     0.45872096    -0.92203112
 H       -1.33770784    -2.29431701    -0.52145597
 H        0.02473730    -2.11984801    -1.63734856
 H       -1.57622205    -1.50100322    -2.07991431
 H       -0.85578635     1.87913339     1.23397430
 H       -2.50539092     2.31389656     0.75717006
 H       -1.16917944     2.50445716    -0.38582403
 H       -0.13731274    -2.17464597     1.45139250
 H       -0.62644576    -0.67916111     2.23264039
 H        1.04855923    -1.22901933     2.36052199
 H        2.47782728    -0.04341345     1.14153866
 H        1.69711097     1.10381293    -1.63901860
 H        3.26841735     0.41159698    -1.22210352
 H        2.73957714     1.90052519    -0.45516362
