16
(2Z,4Z)-hexa-2,4-diene
 C       -2.73168173    -0.44832539    -0.00000433
 C       -1.74340475     0.68039560     0.00000050
 C       -0.40174256     0.60555178     0.00000550
 C        0.40174252    -0.60555156     0.00000556
 C        1.74340471    -0.68039564     0.00000066
 C        2.73168179     0.44832523    -0.00000423
 H       -3.38748001    -0.39003387     0.87829071
 H       -2.26031474    -1.43313125     0.00004820
 H       -3.38740544    -0.39009295    -0.87835969
 H       -2.18786612     1.67449385    -0.00000469
 H        0.14229022     1.54682069     0.00000492
 H       -0.14229031    -1.54682046     0.00000508
 H        2.18786590    -1.67449399    -0.00000568
 H        3.38749501     0.39002078     0.87827863
 H        2.26031489     1.43313113     0.00007058
 H        3.38739067     0.39010586    -0.87837170
