16
3,3-Dimethyl-1-butyne
 C        0.86608218    -0.63317518    -1.31494002
 C        0.35742103     0.00003312     0.00001072
 C       -1.11096259    -0.00008801     0.00000191
 C       -2.31366713    -0.00011173    -0.00003336
 H        1.96143302    -0.63925752    -1.32988681
 H        0.51440343    -1.66410077    -1.41378024
 H        0.51271705    -0.06896609    -2.18272319
 C        0.86603985    -0.82218731     1.20584069
 C        0.86577288     1.45551470     0.10912060
 H       -3.37602986    -0.00011484    -0.00006480
 H        1.96137910    -0.83131184     1.21914869
 H        0.51352351    -0.39304730     2.14808785
 H        0.51338559    -1.85601683     1.15037102
 H        1.96112874     1.47193988     0.11013833
 H        0.51283251     2.05677094    -0.73358087
 H        0.51323822     1.92427602     1.03228353
