18
3,3-Dimethylbut-1-ene
 C       -0.37796149    -0.00571676     0.00000000
 C       -0.30625339    -1.53998459     0.00000741
 C       -1.13778821     0.47356535     1.25744357
 C       -1.13779666     0.47355162    -1.25744383
 C        0.99278695     0.63902545    -0.00000693
 C        2.17897198     0.03756087    -0.00000145
 H        0.21521239    -1.91631007     0.88604410
 H       -1.31468990    -1.96688500     0.00002210
 H        0.21519114    -1.91632049    -0.88603761
 H       -1.20538669     1.56664027     1.28647903
 H       -2.15839450     0.07466469     1.26820592
 H       -0.63270229     0.14419537     2.17109354
 H       -1.20541665     1.56662522    -1.28647933
 H       -0.63270351     0.14419042    -2.17109288
 H       -2.15839562     0.07463199    -1.26820565
 H        0.96526852     1.73016508    -0.00001615
 H        3.10007673     0.61157954    -0.00000588
 H        2.28819115    -1.04192806     0.00000753
