21
3,3-Dimethylpent-1-ene
 C       -0.08893758    -0.47050721     0.00770986
 C        1.38073581    -0.23740387    -0.44447626
 C       -0.19682508    -0.46740816     1.54047235
 C       -0.53273861    -1.85374757    -0.52242993
 C       -0.97217563     0.57572518    -0.63958335
 C        2.01455776     1.08514413    -0.00016332
 C       -1.78528751     1.44466776    -0.04493120
 H        1.98757899    -1.07558918    -0.07720594
 H        1.41264073    -0.29861994    -1.54047679
 H       -1.21460951    -0.70942326     1.86289752
 H        0.47531123    -1.21825823     1.96982979
 H        0.06721778     0.50272657     1.97026911
 H       -1.56773201    -2.06917512    -0.23856967
 H       -0.46782768    -1.89880381    -1.61516532
 H        0.10527372    -2.64681551    -0.11630573
 H       -0.91668295     0.58313212    -1.72987755
 H        2.12459227     1.13948781     1.08728471
 H        3.01277267     1.19727595    -0.43521380
 H        1.41037415     1.94121397    -0.31616748
 H       -2.38110121     2.14372100    -0.62317682
 H       -1.89660212     1.49861373     1.03306005
