23
3,3-Dimethylpentane
 C        0.00379063     0.36276051     0.00284461
 C        0.80451279    -0.90358795    -0.39586998
 C       -1.44799675     0.24555929    -0.53507601
 C        0.62796623     1.61565779    -0.64248579
 C       -0.00996707     0.54409416     1.53323679
 C        2.29005130    -0.92764192    -0.01177257
 C       -2.30285673    -0.91208951    -0.00341737
 H        0.71943364    -1.03378266    -1.48353844
 H        0.32175725    -1.78024536     0.05200852
 H       -1.40181856     0.17651298    -1.63042069
 H       -1.96501941     1.18944931    -0.31585640
 H        0.02895406     2.50562231    -0.41906382
 H        0.67982526     1.51579106    -1.73292836
 H        1.64103502     1.80354635    -0.27436260
 H       -0.66101926     1.37795324     1.81986594
 H        0.99003837     0.76519114     1.91892026
 H       -0.37026026    -0.35252324     2.04775695
 H        2.85267512    -0.11899901    -0.48797259
 H        2.74686846    -1.87138087    -0.32712577
 H        2.43396148    -0.84252028     1.06992179
 H       -1.87870502    -1.88926733    -0.25330339
 H       -3.30531023    -0.87230706    -0.44199008
 H       -2.42163712    -0.86776125     1.08367429
