24
3,4-Dimethylhex-1-ene
 C        0.62865829     0.05174323     0.56764068
 C       -0.84912027    -0.44133664     0.48438891
 C        1.43268637    -0.19916305    -0.72508492
 C        0.68017011     1.52722272     0.99047581
 C       -0.94886957    -1.97884124     0.46311633
 C       -1.60081154     0.14736705    -0.68239345
 C        2.95157820    -0.07949739    -0.54896965
 C       -2.61773361     1.00107033    -0.59499368
 H        1.09886365    -0.54242140     1.36555085
 H       -1.34160295    -0.09450748     1.40291182
 H        1.10119047     0.50324991    -1.50053087
 H        1.20930395    -1.20241283    -1.10677061
 H        1.70884135     1.88088101     1.10521128
 H        0.17248065     1.67871806     1.94931072
 H        0.18415394     2.16291793     0.24912678
 H       -0.52962777    -2.40387015    -0.45494890
 H       -1.99407697    -2.29751332     0.52157834
 H       -0.41093491    -2.41717179     1.31076546
 H       -1.27626435    -0.18319161    -1.66939569
 H        3.25247727     0.92732248    -0.24353631
 H        3.47263395    -0.30615994    -1.48477065
 H        3.31616815    -0.77928560     0.21173802
 H       -3.12649518     1.37983075    -1.47585657
 H       -2.98596144     1.35349704     0.36518413
