19
3,4-Dimethylpent-1-yne
 C       -1.11762488     0.21063964    -0.16854563
 C        0.36133888     0.47481984    -0.58275924
 C       -1.32659215     0.22341936     1.35138054
 C       -1.63266140    -1.09768457    -0.78220763
 C        0.84756017     1.89000798    -0.20674793
 C        1.27264320    -0.54149088    -0.05243191
 C        2.02734012    -1.36528369     0.39415571
 H       -1.69556245     1.03930671    -0.60093529
 H        0.39258825     0.40080872    -1.67943525
 H       -2.37890456     0.04246631     1.59305832
 H       -0.73038626    -0.55942571     1.83145860
 H       -1.04659353     1.18207132     1.79784940
 H       -2.68909398    -1.25224346    -0.54010105
 H       -1.53555675    -1.09283957    -1.87349230
 H       -1.06908318    -1.95510391    -0.39986675
 H        0.89785022     2.01986534     0.87724062
 H        1.84720375     2.07246747    -0.61003095
 H        0.16756482     2.64483176    -0.61517788
 H        2.69620200    -2.09450262     0.78090934
