24
(3E)-2,4-dimethylhex-3-ene
 C       -0.34909153     0.19378357    -0.39497212
 C        0.83174016    -0.34828237    -0.07332007
 C        1.03295747    -1.39897897     0.99193201
 C        2.09051004     0.08106730    -0.80092311
 C        3.08261232     0.86748616     0.07542713
 C       -1.71419565    -0.06331657     0.18996546
 C       -2.66885338    -0.60911704    -0.88897601
 C       -2.28264750     1.22582547     0.81358117
 H       -0.35295742     0.93695831    -1.19585971
 H        1.68151299    -1.03264068     1.79704521
 H        1.53268083    -2.28087340     0.57020167
 H        0.09908206    -1.73100583     1.44805791
 H        1.81587941     0.69439225    -1.66602300
 H        2.60190531    -0.80810555    -1.19747036
 H        2.61321949     1.77114132     0.47772258
 H        3.95816210     1.17076606    -0.50765162
 H        3.44121645     0.27199325     0.92076858
 H       -1.64153909    -0.81404149     0.98436209
 H       -2.77200589     0.10420098    -1.71533933
 H       -3.66801071    -0.78699306    -0.47602310
 H       -2.29789937    -1.55024622    -1.30617217
 H       -1.63468356     1.59805234     1.61297097
 H       -3.28000194     1.05263392     1.23279084
 H       -2.37079650     2.01735294     0.05990836
