24
(3E)-3,4-dimethylhex-3-ene
 C       -0.52257210    -1.89538921    -0.36528332
 C       -0.55246309    -0.38303987    -0.38134865
 C       -1.96368947     0.17972809    -0.38381627
 C       -2.56250301     0.32469029     1.02768621
 C        0.55246279     0.38303906    -0.38134895
 C        1.96368920    -0.17972895    -0.38381622
 C        2.56250366    -0.32468806     1.02768619
 C        0.52257193     1.89538844    -0.36528491
 H       -1.18738869    -2.28410661     0.41648105
 H        0.46748983    -2.31597076    -0.18716907
 H       -0.89718528    -2.30295805    -1.31444332
 H       -2.60493350    -0.49262663    -0.96891526
 H       -2.00343995     1.14698417    -0.89247236
 H       -1.98988300     1.04276272     1.62319136
 H       -2.55397590    -0.62937093     1.56514242
 H       -3.60032402     0.67147154     0.98176298
 H        2.60493286     0.49262445    -0.96891716
 H        2.00343927    -1.14698616    -0.89247019
 H        1.98988415    -1.04275935     1.62319321
 H        2.55397682     0.62937427     1.56514040
 H        3.60032469    -0.67146928     0.98176298
 H        0.89718743     2.30295644    -1.31444437
 H        1.18738668     2.28410646     0.41648076
 H       -0.46749038     2.31597024    -0.18717341
