24
(3E)-3-methylhept-3-ene
 C        1.43343071    -0.53341965     0.78488635
 C       -0.93275442    -0.18526894    -0.13659298
 C        2.63504060    -0.40912093    -0.17914227
 C        0.22658007     0.26175977     0.36372141
 C       -2.03414583     0.79034032    -0.49971409
 C       -1.25224883    -1.63924510    -0.38642370
 C        3.19157359     1.01257827    -0.30905881
 C       -3.28380619     0.68547239     0.39376676
 H        0.32742938     1.34087332     0.47992569
 H        1.18329075    -1.59267737     0.89807117
 H        1.75315639    -0.18888998     1.77927517
 H        2.33516433    -0.77700374    -1.16825084
 H        3.43120406    -1.07713642     0.17323793
 H       -2.33620218     0.62491687    -1.54417079
 H       -1.64278658     1.81216681    -0.44660758
 H       -2.09721063    -1.97539486     0.22687517
 H       -0.41093479    -2.30298503    -0.18173951
 H       -1.55037780    -1.79053007    -1.43212225
 H        2.44929127     1.69899913    -0.72812812
 H        4.06792802     1.03363681    -0.96474133
 H        3.49724862     1.40814869     0.66668206
 H       -3.75354322    -0.30046852     0.32334512
 H       -4.03276143     1.42807563     0.10034407
 H       -3.02645500     0.85953934     1.44362353
