24
(3E)-5-methylhept-3-ene
 C       -1.20379937     0.54878200    -0.39252459
 C       -2.37472110    -0.12739369     0.36416327
 C        0.07267748    -0.24959012    -0.26777490
 C       -1.06320922     2.01094405     0.04688249
 C       -2.74180645    -1.53154726    -0.12735121
 C        1.21499243     0.13436073     0.30192646
 C        2.45655746    -0.70912679     0.39664041
 C        3.66220135    -0.07381824    -0.31690880
 H        0.03133869    -1.25305626    -0.69256015
 H        1.29893027     1.13386712     0.72757207
 H       -1.47896844     0.54592383    -1.45995417
 H       -2.12616463    -0.16356329     1.43287350
 H       -3.25511311     0.52186453     0.27345821
 H       -0.26241435     2.51901699    -0.49900774
 H       -1.99489486     2.55607735    -0.13489498
 H       -0.84075010     2.08603767     1.11725649
 H       -1.93299033    -2.24886675     0.04088570
 H       -3.62646154    -1.90744813     0.39653610
 H       -2.96869807    -1.52977443    -1.19988258
 H        2.71588685    -0.85992384     1.45447647
 H        2.25983183    -1.70416670    -0.01982662
 H        3.88480684     0.91767099     0.09265877
 H        4.55900211    -0.69134980    -0.20303373
 H        3.46408201     0.04660589    -1.38672401
