26
3-Ethyl-2-methylpentane
 C       -0.12749217    -0.08877118    -0.30230174
 C        1.38716201    -0.43948683    -0.32379593
 C       -0.48515490     1.03701377     0.70594764
 C       -0.98078409    -1.35774788    -0.09656244
 C        2.23356730     0.71011347    -0.89162195
 C        1.93984831    -0.89692055     1.03600849
 C       -1.41441416     2.11892285     0.13868933
 C       -2.48877752    -1.17064767    -0.29994551
 H       -0.35825466     0.28741713    -1.31053941
 H        1.49315889    -1.28544974    -1.01821325
 H       -0.94061497     0.59624933     1.60197989
 H        0.42837756     1.52968836     1.05612052
 H       -0.62679921    -2.13072698    -0.79153363
 H       -0.80702333    -1.75430456     0.91217298
 H        2.20638035     1.59531575    -0.24624004
 H        3.28310769     0.41082873    -0.98533634
 H        1.88135856     1.01108639    -1.88435623
 H        1.39989605    -1.76327315     1.42920646
 H        2.99387150    -1.18024776     0.94465643
 H        1.88149910    -0.09891376     1.78435494
 H       -2.36324072     1.70154286    -0.21123338
 H       -1.64311096     2.87987139     0.89262264
 H       -0.94615089     2.62556419    -0.71267631
 H       -2.71006044    -0.77170120    -1.29646632
 H       -3.01473967    -2.12598374    -0.20106652
 H       -2.91914964    -0.48483476     0.43640211
