19
3-Ethylcyclopent-1-ene
 C       -0.28618708    -0.23420782     0.39584737
 C        0.32694424     1.13198584    -0.02521522
 C        1.86359673     0.92377425    -0.04583872
 C       -1.60351599    -0.58494202    -0.31418906
 C        0.84644548    -1.19827372     0.10980331
 C        1.99949603    -0.57853028    -0.13515928
 C       -2.75749521     0.36170984     0.03234748
 H       -0.48801313    -0.23486507     1.48015733
 H        0.02115337     1.95504035     0.62575925
 H       -0.01793687     1.37582835    -1.03715078
 H        2.33895397     1.30000472     0.87168147
 H        2.34805639     1.44989350    -0.87670608
 H       -1.88715101    -1.61246408    -0.05085258
 H       -1.43289639    -0.58287587    -1.39912873
 H        0.70644464    -2.27474585     0.13894088
 H        2.94606604    -1.07054365    -0.33418183
 H       -2.95747373     0.36049838     1.11007065
 H       -3.67990243     0.06666016    -0.47785247
 H       -2.53241832     1.39273615    -0.26024727
