24
3-Ethylhex-1-ene
 C       -0.30211783    -0.14440538     0.03749377
 C        0.93103957    -0.83358151     0.69142751
 C       -0.46832184     1.31411335     0.52675451
 C        2.20885575    -0.83052351    -0.16520618
 C       -1.55337123    -0.93819853     0.31182738
 C       -1.51015189     2.11813820    -0.25612337
 C        2.79990651     0.55006602    -0.47181233
 C       -2.33969905    -1.49816942    -0.60348232
 H       -0.14974731    -0.12620872    -1.05114120
 H        1.13761751    -0.36438034     1.66326460
 H        0.68030959    -1.87854686     0.90726065
 H       -0.73975910     1.29321398     1.59137469
 H        0.50057251     1.82237752     0.47373503
 H        2.96703778    -1.43350792     0.35035715
 H        2.00090326    -1.35189025    -1.10922217
 H       -1.80494436    -1.05266288     1.36821950
 H       -2.49397024     1.64114035    -0.21458455
 H       -1.60719242     3.13276243     0.14317527
 H       -1.22955268     2.20216861    -1.31245103
 H        3.02214610     1.10155920     0.44889701
 H        3.73397766     0.45625150    -1.03539194
 H        2.11848912     1.16283080    -1.07049367
 H       -3.22248660    -2.06763800    -0.33066036
 H       -2.12888340    -1.41121865    -1.66627859
