24
3-Ethylhex-3-ene
 C        0.29626368    -0.09859689     0.30862412
 C        0.57197879     1.37470650     0.51918720
 C        1.42032677    -1.05717718     0.68101670
 C       -0.85650400    -0.59134501    -0.16223480
 C       -2.09363140     0.13596689    -0.61270172
 C        1.68307728     1.95292681    -0.37659679
 C        2.24091174    -1.55755663    -0.52223689
 C       -3.32548973    -0.21800739     0.23949380
 H        0.86265999     1.52326451     1.56926568
 H       -0.33978918     1.96004271     0.37264553
 H        0.99630641    -1.92689335     1.19653562
 H        2.09370690    -0.57353284     1.39958919
 H       -0.93919609    -1.67884399    -0.22886027
 H       -2.30318172    -0.13616221    -1.65728501
 H       -1.94455581     1.21976758    -0.60777136
 H        2.64446186     1.46175884    -0.19812136
 H        1.81812826     3.02167408    -0.18052238
 H        1.43614169     1.83091716    -1.43610705
 H        1.59870469    -2.08915996    -1.23126179
 H        3.03038826    -2.24439762    -0.19814834
 H        2.71379025    -0.73192921    -1.06206125
 H       -3.50892909    -1.29808530     0.23608859
 H       -4.22519146     0.27578410    -0.14202001
 H       -3.18252227     0.08928202     1.28036537
