26
3-Ethylhexane
 C       -0.29361764    -0.31646345    -0.05587253
 C        0.94496672    -1.12223258     0.40864190
 C       -0.41688881     1.04704266     0.67800024
 C       -1.55989760    -1.18477214     0.10978388
 C        2.25856915    -0.82968105    -0.33822345
 C       -0.85894127     2.21838047    -0.20868983
 C       -2.87419122    -0.56014435    -0.37023110
 C        2.83691585     0.58076693    -0.17417535
 H       -0.17330011    -0.11382057    -1.13120995
 H        1.09117008    -0.97154617     1.48771707
 H        0.73549777    -2.19224003     0.28418231
 H       -1.11501915     0.93807705     1.51904044
 H        0.54457699     1.30632111     1.13150473
 H       -1.40283320    -2.12689471    -0.43107167
 H       -1.65661641    -1.45968271     1.16998957
 H        3.00939669    -1.55599220    -0.00133681
 H        2.10547114    -1.03203254    -1.40713852
 H       -1.83097242     2.03811224    -0.67632008
 H       -0.93486950     3.14498970     0.37032319
 H       -0.13676402     2.39119333    -1.01512105
 H       -2.81526868    -0.26845761    -1.42506927
 H       -3.69877720    -1.27377055    -0.27044979
 H       -3.14287003     0.32956778     0.20738489
 H        3.00361672     0.82385073     0.88147677
 H        3.80045253     0.66446920    -0.68786360
 H        2.17756818     1.34751888    -0.59225346
