19
3-Ethylpent-1-yne
 C       -0.09959478    -0.09639588     0.28066569
 C       -1.41480879    -0.74629356    -0.22099065
 C        0.20414752     1.25590121    -0.40781256
 C       -2.68225273     0.03175356     0.14703583
 C        1.43625631     1.96857564     0.15537275
 C        1.01410731    -1.03132663     0.10932750
 C        1.91638329    -1.80963844    -0.05628121
 H       -0.21350478     0.09561965     1.35888068
 H       -1.35029258    -0.87269807    -1.30866446
 H       -1.47609005    -1.75535113     0.20052215
 H        0.33404999     1.07653214    -1.48216855
 H       -0.67169402     1.90452483    -0.29922810
 H       -2.72066393     1.01524981    -0.33061828
 H       -3.57409354    -0.51867866    -0.16836646
 H       -2.75279003     0.18357110     1.23022864
 H        2.33142864     1.34924141     0.04840669
 H        1.61237373     2.91509037    -0.36502608
 H        1.31011816     2.19288777     1.22073543
 H        2.71519116    -2.49674884    -0.19182769
