21
3-Ethylpent-2-ene
 C        0.13584986    -0.15622187     0.36783776
 C        0.12630138     1.34868370     0.52633713
 C       -1.17461768    -0.87644913     0.65886172
 C        1.21098618    -0.87090918     0.01289224
 C       -0.78752726     2.09226324    -0.46517264
 C       -1.97788102    -1.25070328    -0.60064631
 C        2.58847746    -0.39448995    -0.34998274
 H       -0.20756506     1.58470264     1.54721262
 H        1.13977890     1.74985835     0.44096132
 H       -0.96455324    -1.79429951     1.22044956
 H       -1.79924476    -0.25456079     1.31220003
 H        1.09158508    -1.95507632    -0.02915620
 H       -1.83436545     1.79390786    -0.35373206
 H       -0.73414166     3.17349181    -0.30086982
 H       -0.49018379     1.89143834    -1.49944849
 H       -1.39466742    -1.91556711    -1.24531944
 H       -2.90644079    -1.76647100    -0.33257487
 H       -2.24162573    -0.36827711    -1.19093680
 H        3.34084292    -0.81494399     0.33006542
 H        2.86201595    -0.73280719    -1.35781190
 H        2.69083372     0.69246912    -0.32856882
