16
3-Methylcyclopentane
 C        0.77970174    -0.01392575     0.41913306
 C       -0.12557303    -1.20441314    -0.00341298
 C       -1.57144579    -0.64729028    -0.04734449
 C       -0.08997611     1.18349508     0.09451192
 C       -1.35223131     0.84419305    -0.16173115
 C        2.15257238    -0.00559092    -0.26365179
 H        0.94832927    -0.04264859     1.50757853
 H       -0.02069854    -2.06928651     0.65752442
 H        0.16741381    -1.52895395    -1.00866755
 H       -2.12990355    -0.88540927     0.86965678
 H       -2.15736038    -1.06091522    -0.87639434
 H        0.29657088     2.19812338     0.11011133
 H       -2.15549574     1.53864072    -0.38578560
 H        2.71919008    -0.91116317    -0.02072215
 H        2.75092509     0.85570235     0.05323293
 H        2.04516056     0.04288129    -1.35309279
