16
3-Methylpenta-1,4-diene
 C       -0.00285711     0.50769917    -0.33943035
 C       -0.01070295     1.95508123     0.20243052
 C       -1.39552417    -0.08326492    -0.26062133
 C        1.03095712    -0.31743555     0.37938763
 C       -1.71912344    -1.29513112     0.18111959
 C        2.07512194    -0.91197396    -0.18974990
 H        0.27652127     0.55703822    -1.40274877
 H       -0.74982552     2.56562944    -0.32695641
 H       -0.26502029     1.97034627     1.26775134
 H        0.97123770     2.42089312     0.07946522
 H       -2.18623850     0.58047152    -0.61179379
 H        0.88855510    -0.40157826     1.45725148
 H       -2.74989700    -1.63394095     0.19719325
 H       -0.96982351    -1.99788680     0.53171256
 H        2.79695990    -1.47940914     0.38887155
 H        2.25101103    -0.85478237    -1.26088483
