27
(3S)-3-ethyl-1,1-dimethylcyclopentane
 C        1.39315787     0.24945241    -0.02818634
 C       -0.97980693    -0.33075512     0.33369249
 C       -0.04355279     0.81232317    -0.12338205
 C        1.18629015    -1.19818633    -0.53572367
 C       -0.19813855    -1.63951121    -0.00377534
 C       -2.38142850    -0.28376490    -0.28875937
 C        1.88361400     0.24705457     1.43222128
 C        2.38440909     1.03460548    -0.89508129
 C       -3.19043419     0.96204232     0.08771622
 H       -1.10226609    -0.26551114     1.42248243
 H       -0.25876123     1.06447433    -1.17142082
 H       -0.17239304     1.73081782     0.45901919
 H        1.99516628    -1.86897135    -0.22696336
 H        1.18083599    -1.19282686    -1.63238785
 H       -0.73377133    -2.23919912    -0.74705520
 H       -0.09986602    -2.26952219     0.88572358
 H       -2.93609851    -1.18030944     0.01819718
 H       -2.28658415    -0.34495618    -1.38227176
 H        1.94472502     1.26776140     1.82653028
 H        2.88198662    -0.19870166     1.50562035
 H        1.21960068    -0.32262803     2.08996838
 H        2.06058723     1.06051416    -1.94159388
 H        3.38274952     0.58272911    -0.86488645
 H        2.48216907     2.07028274    -0.54938597
 H       -3.31252174     1.03897677     1.17434387
 H       -4.19015899     0.93534616    -0.35766970
 H       -2.69967626     1.87891829    -0.25489713
