19
(3S,5S)-3,5-dimethylcyclopent-1-ene
 C       -0.55439751    -1.23018073    -0.20818041
 C        0.67038431    -1.23391553     0.31421502
 C        1.22269466     0.16313134     0.50741810
 C       -0.04376150     1.04520338     0.31534150
 C       -1.08678840     0.16934834    -0.43408509
 C        2.35012128     0.47843409    -0.49254645
 C       -2.52821168     0.37978865     0.04679714
 H       -1.12549003    -2.11427663    -0.47629423
 H        1.25596445    -2.12174510     0.53367569
 H        1.63055119     0.28900987     1.51907708
 H        0.17536139     1.97947041    -0.21093586
 H       -0.45133586     1.31709425     1.29553319
 H       -1.06254189     0.39001172    -1.51258995
 H        3.18595824    -0.22105484    -0.38200955
 H        2.73846576     1.49126183    -0.33932760
 H        1.98922104     0.40423461    -1.52423505
 H       -3.22757946    -0.26819107    -0.49297266
 H       -2.84763566     1.41611982    -0.10836258
 H       -2.61863251     0.15507650     1.11548848
