16
(3Z)-3-methylpenta-1,3-diene
 C        0.53098620    -0.31338961    -0.02808462
 C       -0.53528648    -1.12313952     0.07759049
 C        1.93425744    -0.86650209     0.09423656
 C       -1.98574384    -0.77824255    -0.09094508
 C        0.47117096     1.13306094    -0.30796749
 C       -0.35594149     2.02844618     0.23747774
 H       -0.33490449    -2.17428623     0.28435601
 H        2.47945919    -0.39204426     0.91954016
 H        2.51479130    -0.66952602    -0.81654678
 H        1.92785178    -1.94619564     0.26479787
 H       -2.49063342    -1.54015858    -0.69675761
 H       -2.12549258     0.19514401    -0.56647093
 H       -2.50970204    -0.75487256     0.87428936
 H        1.23035106     1.49488474    -1.00389792
 H       -0.30424310     3.07879749    -0.03059889
 H       -1.09524932     1.75293702     0.98194795
