24
4,4-dimethylhex-1-ene
 C        0.43708845    -0.41056071    -0.00769709
 C        1.77996882     0.00275305    -0.66500087
 C       -0.58775916     0.75279800    -0.15235466
 C       -0.08496769    -1.65296014    -0.75264428
 C        0.65340436    -0.76827407     1.47535722
 C        2.52904571     1.18947962    -0.04557839
 C       -1.95383855     0.49188828     0.41861917
 C       -3.08495116     0.46175551    -0.28206285
 H        1.59016017     0.21732166    -1.72532771
 H        2.44197756    -0.87346858    -0.65072517
 H       -0.68548197     1.00260970    -1.21660403
 H       -0.17329551     1.64128828     0.34268846
 H       -1.05193644    -1.97815672    -0.35798694
 H        0.61890227    -2.48738583    -0.65843392
 H       -0.21567854    -1.44617887    -1.82116085
 H        0.92403888     0.10747462     2.07417712
 H        1.45694995    -1.50595760     1.58094551
 H       -0.24855612    -1.20441311     1.91560278
 H        1.94588821     2.11480072    -0.08488349
 H        3.46129748     1.37196141    -0.58990884
 H        2.79365051     1.00576847     1.00029899
 H       -2.00209503     0.33398971     1.49550712
 H       -4.04649288     0.28268502     0.18840103
 H       -3.09430646     0.62134166    -1.35730832
