19
4-Ethylcyclopent-1-ene
 C        0.27533259    -0.25961656     0.54754870
 C       -0.91966329    -1.22845406     0.28983549
 C       -0.32816927     1.17006401     0.38369359
 C        1.43211615    -0.52049345    -0.43308828
 C       -1.96619796    -0.35819426    -0.36086590
 C       -1.64758954     0.93346789    -0.30979847
 C        2.70655247     0.27325019    -0.12688986
 H        0.65913849    -0.39515900     1.56470341
 H       -1.30104596    -1.66521776     1.22359092
 H       -0.62641682    -2.07689702    -0.34197679
 H        0.32996396     1.83314140    -0.19152351
 H       -0.47932138     1.66567303     1.35276901
 H        1.08894169    -0.30058625    -1.45341913
 H        1.67077011    -1.59168470    -0.41571907
 H       -2.87606610    -0.76308416    -0.79190867
 H       -2.25644931     1.74511412    -0.69484131
 H        2.53528885     1.35420338    -0.15970954
 H        3.49642339     0.04448556    -0.84956672
 H        3.08846779     0.03066087     0.87148644
