16
4-Methylpent-1-yne
 C       -0.86684664    -0.03233093    -0.32851530
 C        0.26194527     0.78721279     0.34563117
 C       -0.88608197    -1.48032151     0.17415727
 C       -2.21919310     0.65547544    -0.10536342
 C        1.60317994     0.28631285     0.06407815
 C        2.70176065    -0.13460330    -0.18568982
 H       -0.65776106    -0.04512085    -1.40606384
 H        0.09642010     0.79798751     1.43233122
 H        0.19377980     1.83257387     0.01705619
 H       -1.65219677    -2.06439113    -0.34596611
 H       -1.11101489    -1.51735129     1.24727704
 H        0.08069363    -1.96632774     0.01630157
 H       -3.02514352     0.10426885    -0.60030633
 H       -2.22089277     1.67787261    -0.49848710
 H       -2.46138230     0.70742565     0.96312425
 H        3.67577797    -0.50026054    -0.40017218
