19
4-Methylhex-1-yne
 C        0.41585234     0.42326144    -0.23874552
 C        1.89152564     0.23110081     0.15768719
 C       -0.50640396    -0.55643660     0.53130848
 C       -0.02382752     1.87555792    -0.01673906
 C        2.50861575    -1.11064289    -0.25371688
 C       -1.89831857    -0.51681755     0.09480838
 C       -3.03971046    -0.48114662    -0.28262414
 H        0.31597555     0.19224914    -1.30818349
 H        1.99114456     0.36803844     1.24379522
 H        2.47288777     1.04098900    -0.30047836
 H       -0.45349777    -0.32456239     1.60473746
 H       -0.13475570    -1.58187727     0.42142849
 H       -1.07299908     2.01731646    -0.28998958
 H        0.58211375     2.56350658    -0.61517456
 H        0.09094033     2.16080157     1.03636307
 H        2.03478601    -1.95920315     0.24997857
 H        3.57395734    -1.14117966    -0.00420101
 H        2.41601335    -1.27241741    -1.33359445
 H       -4.05017558    -0.45477685    -0.60917042
