19
4-Methylhex-2-yne
 C       -0.59552028     0.31873898    -0.37154766
 C       -1.41483807    -0.83637002     0.25666688
 C       -0.97631607     1.69990895     0.20088815
 C       -2.91793683    -0.76870943    -0.03108527
 C        0.83950755     0.07350119    -0.20888405
 C        2.01705614    -0.13082942    -0.05437136
 C        3.44278311    -0.37669106     0.12399909
 H       -0.81783264     0.32994183    -1.44939008
 H       -1.23797078    -0.84124339     1.33939057
 H       -1.01403791    -1.78244277    -0.12343728
 H       -0.36768778     2.48606090    -0.25369870
 H       -0.80780714     1.72639207     1.28240609
 H       -2.02813180     1.93058667     0.00937838
 H       -3.38421723     0.11509862     0.41475831
 H       -3.42825090    -1.64755857     0.37540062
 H       -3.11426519    -0.74118855    -1.10920687
 H        3.93189913     0.46141826     0.63346663
 H        3.94732034    -0.51709212    -0.83880151
 H        3.62095653    -1.27646986     0.72388201
