18
4-Methylpent-1-ene
 C        0.97006363     0.00363968    -0.33362671
 C       -0.26447972    -0.76162459     0.19691289
 C        0.92493001     1.48776906     0.05248851
 C        2.26540718    -0.65459834     0.15896083
 C       -1.56428378    -0.31197976    -0.40731971
 C       -2.61026937     0.16084532     0.26539901
 H        0.95249802    -0.06329397    -1.43141260
 H       -0.31020401    -0.66798450     1.29005872
 H       -0.12251034    -1.83041788    -0.02041496
 H        1.77434948     2.03192870    -0.37362840
 H        0.96780799     1.60572906     1.14239348
 H        0.00414855     1.96455842    -0.29560543
 H        3.14696923    -0.13646180    -0.23315449
 H        2.32584497    -1.70329310    -0.15162803
 H        2.32562114    -0.62741495     1.25377213
 H       -1.62736934    -0.39122598    -1.49371429
 H       -3.52464787     0.46379698    -0.23457762
 H       -2.59490019     0.25838194     1.34787000
