16
4-Methylpenta-1,3-diene
 C       -1.35356022    -1.40427848     0.00011709
 C       -0.94369516     0.04500678    -0.00003171
 C        0.32924461     0.48344542    -0.00012087
 C       -2.09233006     1.01959494     0.00002118
 C        1.54530506    -0.31084763    -0.00021453
 C        2.77871454     0.21034126     0.00018818
 H       -1.97372134    -1.62844847     0.87799459
 H       -1.97284433    -1.62898755    -0.87825016
 H       -0.50987288    -2.09545545     0.00066467
 H        0.48843484     1.56180425    -0.00012993
 H       -1.74836741     2.05703024    -0.00099296
 H       -2.73463047     0.87251901     0.87882836
 H       -2.73579379     0.87116421    -0.87768881
 H        1.44165064    -1.39337770    -0.00068433
 H        2.94184288     1.28457931     0.00062848
 H        3.66373944    -0.41594201     0.00011428
