24
Butylbenzene
 C        0.82968980     0.00008354     0.96084362
 C        1.86134276    -0.00000867    -0.18416502
 C        3.31216137     0.00003447     0.30943518
 C        4.33344258    -0.00006481    -0.83225525
 C       -0.59881640     0.00003851     0.46588048
 C       -1.27181178     1.20061186     0.21518925
 C       -2.57585830     1.20370512    -0.27461065
 C       -3.23293765    -0.00005126    -0.52204508
 C       -2.57580962    -1.20376313    -0.27452134
 C       -1.27176381    -1.20058095     0.21527862
 H        1.00058497     0.87945095     1.59437045
 H        1.00059067    -0.87917893     1.59451501
 H        1.68844352     0.87661054    -0.82255763
 H        1.68844701    -0.87673402    -0.82241283
 H        3.47698678    -0.87693903     0.94975112
 H        3.47698663     0.87711909     0.94959888
 H        4.21462013     0.88342239    -1.46949909
 H        4.21462125    -0.88366402    -1.46934400
 H        5.35965842    -0.00003073    -0.45115091
 H       -0.76786570     2.14355347     0.41114223
 H       -3.08086065     2.14715055    -0.45839802
 H       -4.25030369    -0.00008587    -0.90006826
 H       -3.08077404    -2.14724247    -0.45823886
 H       -0.76777990    -2.14348775     0.41130212
