18
cis-1,2-dimethylcyclobutane
 C        1.98346503     0.32844655    -0.08481187
 C        0.72127528    -0.35327972     0.42472659
 H        0.93648154    -0.83004824     1.38850994
 C       -0.62350351     0.44305980     0.55932774
 H       -0.86639502     0.74586028     1.58349741
 C       -1.36500548    -0.83108419     0.05416962
 C       -0.01531047    -1.37195177    -0.48880761
 C       -0.78004964     1.64833893    -0.36554417
 H        2.34089961     1.09112201     0.61686537
 H        2.79084886    -0.40102317    -0.21721230
 H        1.81973996     0.81573014    -1.05164187
 H       -1.75062722    -1.43944471     0.87730490
 H       -2.17181021    -0.67600518    -0.66830052
 H        0.12316392    -1.13734977    -1.54935732
 H        0.20434235    -2.43306929    -0.34313668
 H       -0.58478454     1.38890656    -1.41214710
 H       -1.80205564     2.03981865    -0.31190150
 H       -0.09763528     2.46042436    -0.09196865
