13
(3Z)-penta-1,3-diene
 C       -2.37103151     0.18842704     0.00000015
 C       -1.04549501     0.37299365    -0.00000019
 C       -0.07702362    -0.71168700    -0.00000010
 C        1.26123306    -0.60562634     0.00000001
 C        2.08430313     0.64834461     0.00000008
 H       -2.80527242    -0.80764602     0.00000050
 H       -3.06531021     1.02125342     0.00000010
 H       -0.66053148     1.39018905    -0.00000052
 H       -0.50667862    -1.71270058    -0.00000006
 H        1.83629914    -1.53024072     0.00000010
 H        2.74157873     0.68077437     0.87835112
 H        1.48070397     1.55814605    -0.00000002
 H        2.74157897     0.68077432    -0.87835077
