18
(2E)-hex-2-ene
 C       -3.16326154     0.26673520    -0.11528404
 C       -1.78392709    -0.29686149    -0.29533876
 C       -0.72241369     0.01175486     0.44785564
 C        0.66192302    -0.54170715     0.26305413
 C        1.70661347     0.54192860    -0.06322505
 C        3.12436996    -0.01974660    -0.20307551
 H       -3.50587192     0.78065945    -1.02252962
 H       -3.89513050    -0.52563948     0.08749665
 H       -3.19999291     0.98105002     0.71276178
 H       -1.66464961    -1.01875935    -1.10452322
 H       -0.84035769     0.73577849     1.25652392
 H        0.97745796    -1.06060599     1.18084895
 H        0.65605073    -1.29710550    -0.53295645
 H        1.41334650     1.05160972    -0.98925780
 H        1.68931353     1.30716855     0.72390387
 H        3.84597059     0.77004628    -0.43506821
 H        3.45005941    -0.50769288     0.72262313
 H        3.17768099    -0.76528346    -1.00449132
