14
Methylcyclopentadiene
 C        0.15337612    -1.17935612     0.00000002
 C       -0.72979623     0.04890108     0.00000000
 C        1.55011019    -0.61461231    -0.00000002
 C        0.06588622     1.13831915     0.00000001
 C        1.47534378     0.72880991    -0.00000000
 C       -2.22395610    -0.00842123    -0.00000001
 H       -0.03481220    -1.81688887     0.87638408
 H       -0.03481226    -1.81688898    -0.87638395
 H        2.44649047    -1.22065294    -0.00000003
 H       -0.27320428     2.16821176     0.00000001
 H        2.31056330     1.41923998     0.00000000
 H       -2.61012931    -0.54077080    -0.87915283
 H       -2.61012934    -0.54077064     0.87915288
 H       -2.65840737     0.99542953    -0.00000011
