25
Non-4-yne
 C        2.29083786    -0.17186390    -0.09782060
 C        3.74366967     0.15749703     0.25976882
 C        1.31495716     0.96664123     0.26343622
 C        4.71682232    -0.96986529    -0.09814566
 C       -3.45351411    -0.25632570     0.54974935
 C       -2.59723531     0.07019124    -0.69134034
 C       -0.07363638     0.66528471    -0.07349438
 C       -4.90209835    -0.59183533     0.18691030
 C       -1.21073808     0.39429958    -0.36769504
 H        1.97739618    -1.08680825     0.41965476
 H        2.20951470    -0.38302891    -1.17109398
 H        3.81277779     0.37487978     1.33417688
 H        4.04438787     1.07943633    -0.25597684
 H        1.62732152     1.88644527    -0.25037946
 H        1.39432359     1.18277801     1.33795848
 H        4.46112734    -1.89540112     0.42969388
 H        5.74616170    -0.70857626     0.16713623
 H        4.69379863    -1.18583687    -1.17212203
 H       -3.42439853     0.59905079     1.23415803
 H       -2.99433550    -1.09511493     1.08506132
 H       -3.05529279     0.90859424    -1.23454552
 H       -2.62455912    -0.78400879    -1.38226494
 H       -5.38723868     0.24585393    -0.32688049
 H       -5.49145900    -0.82019815     1.08027197
 H       -4.95423945    -1.46173309    -0.47767070
