20
1,4-Diethenylbenzene
 C       -1.42300220     0.19807684     0.00002086
 C        1.42300222     0.19807688    -0.00006058
 C       -0.69157982    -1.00448470    -0.00004085
 C        0.69157986    -1.00448468    -0.00008213
 C       -0.69461850     1.39532311     0.00003351
 C        0.69461850     1.39532313    -0.00001439
 C       -2.88892891     0.25164755     0.00006342
 C        2.88892894     0.25164757    -0.00008431
 C       -3.74368465    -0.77556142    -0.00000182
 C        3.74368458    -0.77556145     0.00015180
 H       -1.21716528    -1.95375145    -0.00006078
 H        1.21716537    -1.95375141    -0.00014953
 H       -1.23064744     2.34037847     0.00007715
 H        1.23064741     2.34037851    -0.00000446
 H       -3.30053885     1.26016578     0.00015572
 H        3.30053893     1.26016575    -0.00029999
 H       -3.41991695    -1.81126633    -0.00010143
 H       -4.81503677    -0.60948335     0.00004071
 H        3.41991676    -1.81126630     0.00040870
 H        4.81503673    -0.60948350     0.00010663
