19
(Prop-1-en-2-yl)benzene
 C       -0.24587056    -0.04381111    -0.00797739
 C       -1.73089921    -0.09812793    -0.02285578
 C        0.43822001     1.16693504    -0.19652125
 C        0.52295961    -1.20012438     0.20578924
 C        1.82996949     1.21612245    -0.20122369
 C        1.91208812    -1.15260686     0.20385566
 C       -2.48275409     1.15087927     0.37747394
 C        2.57479258     0.05666962    -0.00382347
 C       -2.39584643    -1.20121247    -0.38798504
 H       -0.12034431     2.08255944    -0.35562674
 H        0.02157303    -2.14182406     0.40157420
 H        2.33191397     2.16579906    -0.35879446
 H        2.48009821    -2.06144673     0.37735207
 H       -2.13332549     1.53687405     1.34162982
 H       -3.55459089     0.95210643     0.45004778
 H       -2.34675192     1.95586196    -0.35474871
 H        3.65935570     0.09494782    -0.00118433
 H       -3.48027812    -1.23375926    -0.37541652
 H       -1.89015975    -2.09761716    -0.72872142
