18
trans-1,3-dimethylcyclobutane
 C       -0.89805085    -0.00000001    -0.41190878
 C        1.07950591    -0.00000000     0.52976433
 C       -0.00311302     1.08583414     0.25271209
 C       -0.00311301    -1.08583416     0.25271208
 C       -2.38975155     0.00000001    -0.11172335
 C        2.23919458     0.00000001    -0.46301270
 H       -0.74507081     0.00000001    -1.49691908
 H        1.47647419    -0.00000001     1.54987863
 H       -0.45128281     1.46655183     1.17654469
 H        0.29581604     1.94005075    -0.36291877
 H        0.29581605    -1.94005075    -0.36291879
 H       -0.45128279    -1.46655185     1.17654469
 H       -2.88215940     0.88477676    -0.53175336
 H       -2.57219075     0.00000006     0.96950614
 H       -2.88215940    -0.88477678    -0.53175328
 H        1.87959851     0.00000000    -1.49867101
 H        2.87133833    -0.88569368    -0.33276906
 H        2.87133830     0.88569372    -0.33276906
