13
(3E)-penta-1,3-diene
 C       -2.49495958     0.26313728     0.00000003
 C       -1.32661211    -0.38835497    -0.00000002
 C       -0.02208522     0.25154064    -0.00000003
 C        1.14383760    -0.40823340     0.00000001
 C        2.49868420     0.22967596     0.00000001
 H       -2.53970251     1.34865656     0.00000005
 H       -3.44309590    -0.26267262     0.00000004
 H       -1.32442922    -1.47809349    -0.00000004
 H       -0.01645673     1.34195094    -0.00000007
 H        1.12466832    -1.49844580     0.00000005
 H        3.08194957    -0.07543536     0.87850096
 H        2.42998618     1.32141935    -0.00000010
 H        3.08194966    -0.07543553    -0.87850082
