18
(2Z)-hex-2-ene
 C       -1.89940955     0.32556731     0.14823073
 C       -0.50879227     0.78878387     0.63097763
 C       -1.93327215    -1.13915466    -0.29775156
 C        0.51396999     0.82233414    -0.47174270
 C        1.67754134     0.17184718    -0.54792766
 C        2.28059096    -0.76671016     0.45815160
 H        0.24550835     1.46668673    -1.31010353
 H        2.28427120     0.33264544    -1.43872475
 H       -2.62320364     0.48094495     0.95760260
 H       -2.22309161     0.96992675    -0.67993117
 H       -0.17959243     0.14771152     1.45605417
 H       -0.60894586     1.80090940     1.04849638
 H       -2.92976675    -1.42463995    -0.64951576
 H       -1.66768877    -1.80805699     0.52904177
 H       -1.22218643    -1.32066835    -1.10979566
 H        3.24719308    -0.38791428     0.81422943
 H        2.47978499    -1.74631515     0.00571083
 H        1.64235647    -0.92434765     1.33021517
