10
1-Methylcyclopropene
 C       -0.18652768    -0.07073575     0.00000076
 C        1.11172938     0.69822874     0.00000004
 C        0.88681030    -0.79110062    -0.00000052
 C       -1.65445958     0.07677889    -0.00000046
 H        1.44730396     1.20106639    -0.91209080
 H        1.44730717     1.20106576     0.91208990
 H        1.36065793    -1.75781393     0.00000143
 H       -1.98597081     0.64177383    -0.87952673
 H       -1.98598523     0.64167368     0.87958504
 H       -2.15925356    -0.89391595    -0.00005675
