13
Penta-1,2-diene
 C        2.15302089     0.51312505     0.00000301
 C        1.08412671    -0.23276154    -0.00000044
 C        0.01869591    -0.98488966    -0.00000727
 C       -1.41292628    -0.49305394     0.00000727
 C       -1.56815527     1.02783059    -0.00000344
 H       -1.92474628    -0.92150456     0.87323830
 H       -1.92480512    -0.92148765    -0.87319534
 H       -1.09707536     1.47199301     0.88214298
 H       -2.62551633     1.30885149     0.00025322
 H       -1.09749763     1.47190555    -0.88241992
 H        2.62247570     0.83929207    -0.92490996
 H        2.62247455     0.83929522     0.92491415
 H        0.15316286    -2.06717673    -0.00001304
