18
(3Z)-hex-3-ene
 C       -2.78258659    -0.37751348    -0.32417546
 C       -1.50791095    -0.36060720     0.53779977
 C       -0.62642077     0.81916174     0.23091708
 H       -1.80196013    -0.31878611     1.59626921
 H       -0.96521545    -1.30196564     0.40799221
 C        0.62648490     0.81962121    -0.23021930
 C        1.50825525    -0.35953074    -0.53865332
 C        2.78220716    -0.37816536     0.32436042
 H       -2.53535094    -0.47205422    -1.38626787
 H       -3.43366953    -1.21359848    -0.04927398
 H       -3.35491283     0.54818226    -0.19880844
 H        3.35501936     0.54747297     0.20080192
 H        2.53408672    -0.47414087     1.38611737
 H        3.43318189    -1.21410731     0.04876060
 H        1.80321931    -0.31576134    -1.59678575
 H        0.96543459    -1.30110778    -0.41113907
 H        1.09992081     1.78812992    -0.39660320
 H       -1.10009915     1.78733596     0.39858945
