18
(3E)-hex-3-ene
 C        2.76894744     0.79771243     0.12282915
 C        1.94641608    -0.43845257    -0.27944368
 C        0.57516816    -0.44874753     0.33586756
 H        2.49392879    -1.33979404     0.03152028
 H        1.86044091    -0.48872734    -1.37131914
 C       -0.57525148    -0.44937059    -0.33571487
 C       -1.94647729    -0.43832879     0.27962948
 C       -2.76881217     0.79779890    -0.12316212
 H        2.28165063     1.71788129    -0.21484450
 H        3.77268139     0.76285311    -0.31282037
 H        2.87878551     0.86085369     1.21106859
 H       -2.87884277     0.86064065    -1.21139978
 H       -2.28132708     1.71801181     0.21412646
 H       -3.77250084     0.76328989     0.31262567
 H       -2.49420896    -1.33974607    -0.03071812
 H       -1.86045067    -0.48789799     1.37153444
 H       -0.54633815    -0.44695325    -1.42729756
 H        0.54629149    -0.44447833     1.42745818
