15
1,3,5-Cycloheptatriene
 C        1.47348660     0.00064155    -0.52864155
 C        0.97284619     1.22094994     0.20281857
 C        0.97390678    -1.22013152     0.20272656
 C       -0.33838386     1.52689469     0.26183142
 C       -0.33706204    -1.52717788     0.26186311
 C       -1.41788976     0.68035971    -0.19041371
 C       -1.41733005    -0.68158497    -0.19035725
 H        2.56417390     0.00111140    -0.59179857
 H        1.07860821     0.00059465    -1.55449490
 H        1.69955638     1.87384417     0.67943590
 H        1.70119364    -1.87242425     0.67928918
 H       -0.62967052     2.47733981     0.70549358
 H       -0.62750534    -2.47786053     0.70556392
 H       -2.35532557     1.17843200    -0.42983537
 H       -2.35434754    -1.18045999    -0.42973119
