17
Tricyclo[4.1.0.0(2,4)]heptane
 C        0.00006286    -1.44872304     0.00003671
 C        1.08379427    -0.51666929     0.54853234
 C        0.66976830     0.92749028     0.33982236
 C       -1.08371543    -0.51664318    -0.54864625
 H       -0.39138731    -2.10307681     0.78859287
 H        0.39137272    -2.10337250    -0.78836243
 C       -1.81717609     0.34788060     0.44949107
 C       -0.66978785     0.92755066    -0.33963741
 H       -1.61358984    -0.81103902    -1.44803165
 H       -0.88231092     1.68081187    -1.09304858
 H       -1.66544243     0.15255108     1.50752215
 H       -2.82072808     0.67063467     0.19275063
 C        1.81705508     0.34800451    -0.44958634
 H        1.61386692    -0.81108409     1.44779898
 H        0.88240372     1.68067338     1.09327829
 H        1.66514082     0.15290607    -1.50764195
 H        2.82066078     0.67073135    -0.19300694
