19
Ethylidenecyclopentane
 C       -0.81217738     1.24670811     0.16922327
 C       -2.03392066     0.44768512    -0.32183858
 C        0.34578431     0.26466099     0.06217560
 H       -0.96509446     1.53326436     1.21986565
 H       -0.63735741     2.17108742    -0.38923991
 C       -1.74572343    -0.97498639     0.18933418
 H       -2.06582673     0.45010486    -1.41850705
 H       -2.98566398     0.85092863     0.03585370
 C       -0.22656135    -1.14700894    -0.03124623
 H       -2.33918972    -1.74493105    -0.31169102
 H       -1.97577484    -1.03254773     1.26031225
 C        1.63388510     0.60481496     0.02781392
 C        2.79920770    -0.33681568    -0.07951422
 H        3.47262709    -0.23669964     0.78185283
 H        3.40349222    -0.12011440    -0.97016232
 H        2.48310444    -1.38156976    -0.13712623
 H       -0.03415799    -1.56553125    -1.02827302
 H        0.22537811    -1.83840598     0.68739504
 H        1.88884877     1.66351115     0.07983177
