21
(3Z)-3-Methylhex-3-ene
 C        0.69124741     0.57689308    -0.39494197
 C       -0.56303670     0.54259587     0.07121057
 C       -1.22051656    -0.68574410     0.66576635
 C       -1.43630382     1.77380458     0.01919128
 C        1.71336074    -0.52602720    -0.42582149
 C       -2.15308056    -1.41322268    -0.32128188
 C        2.98529564    -0.16955928     0.36370340
 H        1.04781034     1.52435678    -0.80305849
 H       -0.46755114    -1.39155369     1.02843390
 H       -1.80491206    -0.38317674     1.54516379
 H       -1.73766735     2.08434409     1.02859788
 H       -2.36464186     1.58829323    -0.53593589
 H       -0.92410331     2.61458027    -0.45616052
 H        1.29685135    -1.46422101    -0.04655531
 H        1.99500137    -0.72090627    -1.47079202
 H       -2.63631711    -2.27083449     0.15808547
 H       -1.59303096    -1.77853882    -1.18778175
 H       -2.94279421    -0.75184978    -0.69174239
 H        3.73707816    -0.96124900     0.28108840
 H        2.75933975    -0.02282113     1.42472355
 H        3.43292513     0.75789881    -0.01004908
