23
2,3-Dimethylpentane
 C        0.27711335    -0.33759106    -0.20844832
 C        1.41839679     0.69952736    -0.16968538
 C       -2.19787802    -0.66136890    -0.79410759
 C        2.82332634     0.10473668    -0.32537776
 C       -1.10616622     0.34430951    -0.39689081
 C       -1.56049211     1.17847865     0.81178414
 H        2.90699768    -0.47272608    -1.25335941
 H        3.08264042    -0.56109251     0.50353311
 H        3.58055878     0.89481639    -0.35767956
 H        1.25525888     1.42885848    -0.97404051
 H        1.37106442     1.26645698     0.76920232
 H       -1.89799457    -1.25281261    -1.66620101
 H       -3.12947059    -0.14327097    -1.04621174
 H       -2.42575297    -1.35840184     0.01974832
 C        0.33081651    -1.28426069     1.00222067
 H        0.43574145    -0.94929329    -1.10983977
 H       -0.81973984     1.93265620     1.09408093
 H       -1.74782362     0.54799053     1.68774374
 H       -2.49424010     1.70375600     0.58424474
 H       -0.98724129     1.03629244    -1.24326652
 H        1.26586640    -1.85147472     1.01832364
 H       -0.48582282    -2.01203880     0.98612318
 H        0.26717043    -0.73160837     1.94615353
