20
4-Ethenylcyclohexene
 C        0.60078942    -0.00352770     0.15017029
 C       -0.13368257     1.30980957    -0.19879957
 C       -1.62143165     1.22045933     0.02655112
 H        0.06656811     1.57812878    -1.24807006
 H        0.28685879     2.13197733     0.39390243
 C       -0.18669500    -1.20142137    -0.42015651
 C       -1.60046506    -1.27572664     0.17498013
 H        0.35732312    -2.13260099    -0.22959469
 H       -0.25555968    -1.09202931    -1.51093131
 C       -2.27352075     0.07217742     0.20755183
 H       -1.55958366    -1.69096078     1.19348995
 H       -2.21223013    -1.98215995    -0.40102653
 H       -3.34627842     0.08402521     0.38849676
 H       -2.16956920     2.16035220     0.04178680
 C        2.01834587     0.01636237    -0.34758620
 H        0.61812720    -0.10069802     1.24435943
 C        3.10726319    -0.04569405     0.41346734
 H        2.13015586     0.08854467    -1.43107638
 H        3.04276808    -0.11698081     1.49624934
 H        4.10584390    -0.02824745    -0.01115076
