22
trans-Bicyclo[3.3.0]octane
 C        2.30022902    -0.00014044     0.00054972
 C        1.36441868     1.25670502     0.07427160
 C        1.36423846    -1.25662881    -0.07531325
 H        2.95445339    -0.04692541     0.87609907
 H        2.95696042     0.04641844    -0.87313204
 C        0.00005309    -0.69323736     0.32388829
 C       -1.36441822    -1.25670760    -0.07425514
 C       -2.30022898     0.00014339    -0.00059253
 H       -1.71397323    -2.07147191     0.56642674
 H       -1.32611704    -1.64550053    -1.09918785
 C       -1.36423907     1.25662638     0.07532830
 C       -0.00005304     0.69324100    -0.32387489
 H       -2.95702715    -0.04641068     0.87303912
 H       -2.95438625     0.04693207    -0.87619197
 H       -1.32560973     1.64339873     1.10103274
 H       -1.71379275     2.07260383    -0.56380244
 H        1.32559969    -1.64344095    -1.10100209
 H        1.71380065    -2.07258214     0.56384360
 H        1.32612671     1.64545721     1.09922032
 H        1.71396516     2.07149470    -0.56638279
 H        0.00051975    -0.53659237     1.41530436
 H       -0.00051904     0.53660014    -1.41529183
