21
1,3,5-Trimethylbenzene
 C       -1.34681426    -0.40732906     0.00191300
 C       -2.78862616    -0.85801554    -0.00186926
 C       -1.01465754     0.94455050     0.00131490
 C        0.32061744     1.36999130    -0.00064612
 C        0.65128360     2.84396702     0.00022284
 C        1.32527615     0.40638886    -0.00174289
 C        1.02613328    -0.96272480    -0.00031146
 C       -0.31070983    -1.35096871     0.00167766
 C        2.13746859    -1.98590767    -0.00000028
 H       -3.47281915    -0.00732171     0.05839079
 H       -3.02976028    -1.41648226    -0.91404449
 H       -3.00195577    -1.52168473     0.84374487
 H       -1.80882457     1.68772153     0.00240368
 H        0.25040375     3.34255780     0.89040364
 H        1.73172762     3.01055359    -0.01775458
 H        0.21919494     3.35064402    -0.87040760
 H        2.36594773     0.72263743    -0.00296777
 H       -0.55726308    -2.41030863     0.00318188
 H        1.74162770    -3.00506894    -0.00432004
 H        2.78375747    -1.87357093    -0.87818607
 H        2.77830583    -1.87910432     0.88290676
