16
1,1'-Bi(cyclopropane)
 C        1.84617442    -0.75508394     0.07441996
 C        0.62998892     0.00002273    -0.40348420
 C        1.84623121     0.75505063     0.07440714
 H        1.77980861    -1.26163729     1.03221752
 H        2.45742448    -1.27195484    -0.65773988
 C       -0.62998914    -0.00010933     0.40349099
 H        1.78017128     1.26166108     1.03218601
 H        2.45750074     1.27174529    -0.65785634
 H        0.46424908     0.00005797    -1.47895282
 C       -1.84612180     0.75512400    -0.07435999
 C       -1.84628342    -0.75501214    -0.07447370
 H       -2.45733642     1.27196799     0.65784865
 H       -1.77971767     1.26175319    -1.03211264
 H       -1.78024941    -1.26154411    -1.03229484
 H       -2.45759419    -1.27172142     0.65774317
 H       -0.46425876    -0.00023194     1.47895882
