20
(1R,2S)‐1,2‐diethenylcyclobutane
 C        0.98326883    -1.74501189    -0.16952345
 C       -0.40694818    -1.72711836     0.51256924
 C        0.78716484    -0.24377450    -0.56213443
 H        1.00058556    -2.38968504    -1.05254417
 H        1.85137282    -1.98117694     0.45090024
 C       -0.76242899    -0.45125242    -0.30947323
 H       -0.33512604    -1.50580771     1.58215502
 H       -1.05661852    -2.59665690     0.38606242
 C       -1.57224462     0.62800964     0.32480672
 H       -1.22535704    -0.74590134    -1.25741971
 H        1.03942516     0.01726168    -1.59397904
 C        1.46512251     0.70728694     0.37137260
 C       -2.69994318     1.12923046    -0.17435601
 C        2.19876626     1.75280242    -0.00254912
 H        1.34919772     0.50161355     1.43632740
 H        2.34888732     1.99673996    -1.05093368
 H        2.67816132     2.40493354     0.72024215
 H       -1.19571192     1.01506939     1.27126419
 H       -3.11321089     0.77549772    -1.11554078
 H       -3.25537034     1.91072208     0.33405217
