24
(1R,2R)‐1‐ethyl‐2‐methylcyclopentane
 C        0.39613440     0.01403621     0.22462545
 C        0.11096158    -1.49170445    -0.01050143
 C       -0.87043484     0.72060369    -0.30922122
 C        1.71252218     0.50727670    -0.38480496
 H        0.43348803     0.19531975     1.31062142
 C       -1.43758361    -1.64223234    -0.06444817
 H        0.55987130    -2.11708672     0.76625894
 H        0.55792749    -1.80892359    -0.96032604
 C       -1.99947876    -0.21927105     0.14623986
 H       -1.81323476    -2.34390774     0.68574386
 H       -1.74681534    -2.03405315    -1.03877554
 H       -2.20019525    -0.04278384     1.21142400
 H       -2.93972861    -0.04732591    -0.38747355
 H       -0.82748191     0.70013960    -1.40973182
 C       -1.04543160     2.16868234     0.14710228
 C        2.95969542    -0.14979937     0.21850048
 H        1.78801409     1.59476861    -0.25831575
 H        1.69078382     0.32613257    -1.46882075
 H        3.01493937     0.02793119     1.29867785
 H        3.87479981     0.24921194    -0.23081221
 H        2.95877253    -1.23340025     0.06178516
 H       -1.07735852     2.23057448     1.24176451
 H       -1.97918977     2.59479367    -0.23582226
 H       -0.22739572     2.80889347    -0.19913592
