27
Propylcyclohexane
 C        0.08965243     0.23162449     0.78045770
 C       -0.37545019    -1.18561193     0.39240650
 C       -0.46567808     1.26526093    -0.21620285
 C        1.60926217     0.37260374     1.03105032
 H       -0.38490342     0.44663740     1.75141287
 C       -1.90754084    -1.26699898     0.30458872
 H        0.00088239    -1.91284773     1.12265310
 H        0.04953281    -1.47184280    -0.57709900
 C       -2.46714922    -0.22691402    -0.67697125
 H       -2.33688441    -1.09077147     1.30108056
 H       -2.21668136    -2.27587709     0.00699836
 C       -1.99721427     1.18979873    -0.31594458
 H       -3.56235729    -0.27103687    -0.69603728
 H       -2.12771313    -0.47153772    -1.69353723
 H       -0.03505597     1.08615596    -1.21103361
 H       -0.15541745     2.27591054     0.07835809
 H       -2.43590293     1.48049596     0.64897923
 H       -2.36447354     1.91217171    -1.05438992
 C        2.56684628     0.47629326    -0.17240543
 H        1.93428283    -0.46061909     1.67032332
 H        1.75377808     1.28114684     1.63110897
 C        2.75056496    -0.79195282    -1.01567851
 H        3.54776228     0.76666458     0.22515626
 H        2.25837086     1.30478743    -0.82163178
 H        2.98762137    -1.65664403    -0.38540269
 H        3.57286596    -0.66596543    -1.72809139
 H        1.85643504    -1.04009261    -1.59407872
