30
1-Methyl-4-(propan-2-yl)cyclohexnane
 C       -1.14632643     1.26507969     0.55368161
 C       -0.24354772     1.24625725    -0.69176912
 C       -2.02354492     0.00045281     0.67854784
 C        0.66797299    -0.00138571    -0.75157520
 H       -0.87005766     1.25171248    -1.59288340
 C       -0.24242149    -1.24979540    -0.68808760
 H        1.16378007    -0.00236692    -1.73383396
 C        1.81012316     0.00004895     0.30277725
 C       -1.14679417    -1.26475060     0.55637409
 H        0.34735245    -2.17042272    -0.72834283
 H       -0.86747944    -1.26020649    -1.59013389
 C       -3.19130204     0.00040487    -0.32153694
 H       -2.46779336     0.00126652     1.68287285
 H       -0.52410778    -1.35304537     1.45591050
 H       -1.78410791    -2.15747454     0.53982212
 H       -2.85249524     0.00363753    -1.36225811
 H       -3.82371735     0.88384195    -0.18111381
 H       -3.82104955    -0.88555217    -0.18513891
 H       -1.78317274     2.15812449     0.53569770
 H       -0.52266089     1.35523870     1.45232914
 H        0.34494629     2.16741028    -0.73717797
 C        2.69707995    -1.25156071     0.18714821
 H        1.36735467    -0.00203034     1.30748478
 C        2.69255938     1.25500979     0.18984411
 H        2.15399000    -2.17392845     0.40867035
 H        3.53798497    -1.19325073     0.88630613
 H        3.11425475    -1.34390971    -0.82343552
 H        3.11348413     1.34836781    -0.81912524
 H        3.53099912     1.19997130     0.89217349
 H        2.14514535     2.17546291     0.40876167
