26
(4S)-1-methyl-4-(prop-1-en-2-yl)cyclohex-1-ene
 C        0.10055491    -1.50207927     0.59605006
 C       -1.07672934    -0.67442717     1.12999071
 C       -1.80306518     0.09255230     0.04905742
 H       -0.74058512     0.02493148     1.90945119
 H       -1.78687871    -1.34010345     1.64010654
 C        0.96498580    -0.76922051    -0.45845183
 H       -0.30140235    -2.40410057     0.11666787
 H        0.73408835    -1.83958757     1.42280567
 C        0.05809140    -0.28672768    -1.61496309
 C       -1.27653953     0.25307272    -1.16864003
 H       -0.11059108    -1.12668316    -2.30542344
 H        0.58376628     0.46920294    -2.21272806
 H       -1.84377131     0.80424360    -1.91776479
 C       -3.13935306     0.67129827     0.43031947
 H       -3.04742603     1.34507763     1.29287688
 H       -3.84313176    -0.11681753     0.72916978
 H       -3.58795107     1.23463362    -0.39268131
 C        1.85812651     0.32300105     0.12071316
 H        1.64839837    -1.52052641    -0.86918083
 C        3.15029939     0.06898326     0.34181532
 H        3.59101874    -0.89773600     0.11584864
 H        3.81667770     0.81720147     0.76053868
 C        1.28814920     1.68896032     0.42354437
 H        0.81347028     2.13167842    -0.45884713
 H        2.07529598     2.36774489     0.76268569
 H        0.51638945     1.65333361     1.19921069
