45
Cyclopentadecane
 C        2.84873169     0.34489421    -0.89776572
 C        3.24014047    -1.05704707    -0.38773926
 C        2.21410513    -1.76893128     0.51169934
 H        3.44848233    -1.70107740    -1.25300934
 H        4.19015836    -0.96792242     0.15580461
 C        0.96017358    -2.24015345    -0.23576029
 H        2.69699268    -2.63700531     0.98022724
 H        1.92219094    -1.10892651     1.33982502
 C       -0.08153648    -2.92145691     0.66742876
 H        0.50343024    -1.39051387    -0.75170880
 H        1.25659198    -2.94287634    -1.02734812
 C       -1.42767816    -3.22867325    -0.02818758
 H        0.35292665    -3.85331899     1.05082345
 H       -0.26617183    -2.29678229     1.55289083
 C       -2.49940223    -2.13004046     0.11337979
 H       -1.24594720    -3.42742210    -1.09345530
 H       -1.84395583    -4.15646276     0.38205219
 C       -2.06965476    -0.75036176    -0.39400016
 H       -3.40713979    -2.45010473    -0.41587391
 H       -2.78115837    -2.04502398     1.17258193
 C       -3.13855001     0.34692834    -0.30489378
 H       -1.19250863    -0.42518720     0.17606309
 H       -1.73765501    -0.83004892    -1.43877993
 C       -2.53508088     1.73951250    -0.56525936
 H       -3.93767052     0.13866940    -1.02737350
 H       -3.61110545     0.33181243     0.68731684
 C       -1.76189596     2.30224058     0.64482707
 H       -1.87165341     1.67166182    -1.43788938
 H       -3.32296971     2.44953001    -0.84422370
 C       -0.66386990     3.31817939     0.28288999
 H       -2.47945230     2.77328941     1.32794402
 H       -1.31432144     1.48029675     1.21565520
 C        0.62438791     2.70803263    -0.30279332
 H       -1.07278920     4.04601180    -0.43063766
 H       -0.39568607     3.89250144     1.17961072
 C        1.44324632     1.88270591     0.70418255
 H        0.38357336     2.09750447    -1.18265856
 H        1.25665431     3.52649464    -0.67252603
 C        2.82892223     1.45012288     0.18878910
 H        1.58533760     2.48922377     1.60931007
 H        0.87526043     0.99949910     1.02082773
 H        3.57322861     0.62303571    -1.67194562
 H        1.88032772     0.30183135    -1.41070382
 H        3.33591040     2.34398671    -0.19670883
 H        3.43297707     1.11551958     1.04204541
