30
(1E,5E,9Z)-cyclododeca-1,5,9-triene
 C        1.53928223     1.76465085     0.62690207
 C        2.09523617     1.03873546    -0.56781571
 C        0.26449150     2.58453916     0.28494162
 C        2.37281085    -0.26181569    -0.68857714
 C        2.26557308    -1.34766095     0.34901193
 C        1.13249717    -2.37595006     0.07335349
 C       -0.22408930    -1.88232686     0.48830007
 C       -1.90710182     1.29460564     0.24304355
 C       -0.79962709     1.73604577    -0.34989864
 C       -2.85672876     0.30618851    -0.37348992
 C       -1.27450594    -1.68758550    -0.30711360
 C       -2.60269377    -1.14249816     0.13730348
 H        1.29833142     1.06091570     1.42877311
 H        2.29438707     2.45835419     1.02420976
 H        2.26617306     1.67041504    -1.44096539
 H       -0.11338077     3.04852818     1.20312973
 H        0.54572192     3.40206058    -0.39345907
 H        2.74142892    -0.60566615    -1.65566945
 H        3.21950688    -1.89147386     0.36980035
 H        2.13090769    -0.92816892     1.35142497
 H        1.13002758    -2.64812076    -0.98895339
 H        1.36737655    -3.29209037     0.63305512
 H       -0.33065970    -1.66020633     1.55200867
 H       -2.11659483     1.59112892     1.27228731
 H       -0.59397777     1.40845964    -1.36846819
 H       -2.75324393     0.32021763    -1.46522594
 H       -3.89592274     0.57596786    -0.14763833
 H       -1.17475194    -1.89377180    -1.37415613
 H       -3.41451600    -1.78336088    -0.23187290
 H       -2.66206589    -1.15381603     1.23235029
