34
Cyclotetradeca-1,8-diyne
 C       -2.48483042    -1.51192779    -0.74339407
 C       -1.14395604    -1.55972309    -0.15884736
 C       -3.53169196    -0.74804854     0.10836466
 C       -0.05990014    -1.60192948     0.36925176
 C        1.23219742    -1.61535103     1.05520797
 C        2.45834538    -1.79874257     0.12762152
 C        0.20469518     1.84153442    -0.13978817
 C       -1.19150837     1.78579349    -0.55945765
 C       -2.17430704     1.43636245     0.58711510
 C        1.35780261     1.75295708     0.20050001
 C        2.74745166     1.47073968     0.54643663
 C        3.44398657     0.55772702    -0.49579965
 C       -3.48347306     0.79176935     0.08287713
 C        2.68470887    -0.70721417    -0.93496147
 H       -2.84428320    -2.54059538    -0.87962080
 H       -2.44418377    -1.07843568    -1.75219120
 H       -4.52446912    -1.05689613    -0.24139228
 H       -3.44695981    -1.09472819     1.14517602
 H        1.23635068    -2.43106412     1.79066146
 H        1.32581286    -0.68814001     1.63158626
 H        3.35073651    -1.89385645     0.76051141
 H        2.34118850    -2.76141761    -0.38291461
 H       -1.49937741     2.73024040    -1.02705647
 H       -1.26625815     1.02406137    -1.34496142
 H       -1.67800530     0.76113264     1.28841858
 H       -2.39669252     2.35382371     1.14238016
 H        2.78631335     1.00214342     1.53875214
 H        3.32395716     2.40031835     0.63767568
 H        3.63303214     1.15856157    -1.39319129
 H        4.42792847     0.27893588    -0.09617273
 H       -4.31948793     1.14337484     0.69912003
 H       -3.69848711     1.14655072    -0.93493566
 H        3.26458830    -1.15213160    -1.75281755
 H        1.71959788    -0.42048093    -1.36633761
