16
Cubane
 C        1.35697501     0.02538809     0.09005441
 C        0.53313329     0.18502334    -1.23759152
 C        0.38129892     1.01998838     0.81504543
 C        0.44252321    -1.17962411     0.51256997
 C       -0.44252328     1.17962409    -0.51256995
 C       -0.38129894    -1.01998837    -0.81504541
 C       -1.35697496    -0.02538805    -0.09005442
 C       -0.53313326    -0.18502336     1.23759149
 H        2.44408849     0.04574742     0.16220883
 H        0.96024361     0.33327713    -2.22907266
 H        0.68673297     1.83716447     1.46801718
 H        0.79706856    -2.12467101     0.92320651
 H       -0.79706872     2.12467092    -0.92320657
 H       -0.68673289    -1.83716458    -1.46801707
 H       -2.44408844    -0.04574729    -0.16220878
 H       -0.96024344    -0.33327725     2.22907263
