26
2,2-Dimethyl-3-methylidenebicyclo[2.2.1]heptane
 C        0.47493897     1.14531379    -0.42733322
 C       -0.85884802     0.45590223     0.01773339
 C       -0.42209230    -1.02225600     0.02830878
 C       -1.38964196     0.92069323     1.38551122
 C       -1.96618524     0.70301185    -1.02923759
 C        1.53801210     1.06258516     0.69345459
 C        1.02545113    -1.05033019    -0.41625242
 C       -1.17055040    -2.07100945     0.35511658
 C        1.88537154    -0.46015295     0.73930678
 H        1.64439408    -0.92403290     1.69921996
 H        2.94929015    -0.63198152     0.54756195
 H        2.41524995     1.65397177     0.41283181
 H        1.18968866     1.45073830     1.65225444
 C        1.05068015     0.11746626    -1.42935680
 H        1.36651822    -2.02607017    -0.76774479
 H        2.06221242     0.37137075    -1.76282850
 H        0.42689345    -0.05676389    -2.30888001
 H        0.31891359     2.15763924    -0.80949179
 H       -1.65446288     0.42731659    -2.03963080
 H       -2.85830467     0.11588877    -0.78964987
 H       -2.25229824     1.76137864    -1.04016454
 H       -0.71803889     0.65895758     2.20625847
 H       -1.54080137     2.00670941     1.39792612
 H       -2.35601653     0.45147123     1.59686024
 H       -2.20411507    -1.96644635     0.67240978
 H       -0.77917254    -3.08336653     0.31833698
