17
Tricyclo[2.2.1.0(2,6)]heptane
 C        0.50161125     1.10147958    -0.84158483
 C       -0.93711382     0.69650590    -0.53199455
 C        1.19094298    -0.00007826    -0.00012057
 H        0.74650822     2.11144493    -0.49446716
 H        0.74631403     1.03218548    -1.90732228
 C       -0.93703028     0.11258097     0.86925301
 C        0.50175592     0.17807387     1.37466927
 H        0.74665143    -0.62751436     2.07574853
 H        0.74656964     1.13579906     1.84719612
 C       -0.93717305    -0.80894435    -0.33707042
 H       -1.79479879     1.22150166    -0.93303904
 H       -1.79465688     0.19743349     1.52450503
 C        0.50150327    -1.27961621    -0.53314540
 H       -1.79488280    -1.41877822    -0.59109199
 H        2.28108944    -0.00005407    -0.00022803
 H        0.74628923    -1.48424306    -1.58133552
 H        0.74619279    -2.16779272     0.05995685
