27
Tetracyclo[6.2.1.0(2,7).0(3,5)]undecane
 C       -1.32903561    -1.07059516    -0.34293064
 C       -1.29964169    -0.00532836    -1.46569982
 C       -1.28544024     1.34830198    -0.68250965
 H       -0.44131985    -0.12360368    -2.13304574
 H       -2.19301592    -0.08829087    -2.09238270
 C       -1.19248598     0.89595906     0.78829040
 H       -2.22558040     1.88870541    -0.83606107
 H       -0.48164586     2.02190174    -0.97935484
 C       -2.13596746    -0.33277575     0.75432127
 H       -3.15744025    -0.07942718     0.45017933
 H       -2.17658567    -0.88257785     1.70038049
 C        0.16121724     0.19908945     1.11391574
 H       -1.45786060     1.68125339     1.50070628
 C        0.03822917    -1.18716862     0.37683422
 H       -1.73403315    -2.03248867    -0.66780825
 C        1.36077576    -1.43000739    -0.39960602
 H       -0.06686608    -1.97982383     1.12518347
 C        1.52882443     0.76783468     0.74665219
 H        0.18066775     0.03381192     2.19777042
 C        2.29952393    -0.26705796    -0.05535866
 H        1.19906032    -1.50590726    -1.48151028
 H        1.81167125    -2.37826824    -0.09180663
 C        1.96643636     1.06009754    -0.67461337
 H        3.33732134    -0.49280297     0.16771596
 H        1.25564801     1.07738652    -1.49006761
 H        2.76837455     1.78377739    -0.78404283
 H        2.04285585     1.33414222     1.51744731
