31
Spiro[5.5]undecane
 C       -1.85664146    -1.24187197    -0.77943322
 C       -0.57489687    -0.47878556    -1.15163631
 C       -2.94321650    -0.29560177    -0.25204720
 H       -2.22225114    -1.78866139    -1.65668049
 H       -1.63507877    -2.00191893    -0.01885527
 C        0.00009486     0.38708745     0.00011416
 H        0.17664231    -1.18443734    -1.52013684
 H       -0.80080926     0.18919200    -1.99529690
 C       -2.41760949     0.54512581     0.91899887
 H       -3.26058323     0.37526103    -1.06313762
 H       -3.83170946    -0.86231642     0.04981921
 C       -1.13498658     1.29648245     0.53122311
 H       -3.17958277     1.26317145     1.24437610
 H       -2.22566644    -0.10762837     1.78038296
 H       -1.38347051     2.02831417    -0.25131906
 H       -0.76490141     1.87702371     1.38610372
 C        1.13519561     1.29683500    -0.53008831
 C        0.57446445    -0.48066900     1.15065897
 C        2.41783412     0.54583878    -0.91838173
 H        0.76499990     1.87817294    -1.38438248
 H        1.38361371     2.02779197     0.25329177
 C        1.85672626    -1.24288626     0.77817099
 H        0.79964405     0.18574650     1.99578501
 H       -0.17698519    -1.18733165     1.51749525
 C        2.94310427    -0.29556196     0.25235332
 H        2.22215289    -1.79044956     1.65499449
 H        1.63571267    -2.00214558     0.01665085
 H        3.25913365     0.37518112     1.06406469
 H        3.83231059    -0.86133563    -0.04915484
 H        2.22616095    -0.10639819    -1.78026217
 H        3.17984985     1.26420817    -1.24293632
