26
Adamantane
 C        0.93930735    -1.22009025    -0.12029157
 C        0.73551819    -0.58553413    -1.51134013
 C       -0.20250323     0.63333805    -1.39384783
 H        0.30936700    -1.32343345    -2.20327063
 H        1.70228931    -0.27749716    -1.93015788
 C       -0.42469978    -1.67143056     0.44087972
 C       -1.56433682     0.17850272    -0.83034053
 C       -1.36473735    -0.45459083     0.56192983
 H       -0.87110657    -2.42816960    -0.21713347
 H       -0.29066409    -2.14300796     1.42300736
 H       -2.03076470    -0.54606750    -1.51036934
 H       -2.24790493     1.03449896    -0.76015909
 C       -0.73568345     0.58568909     1.51120008
 H       -2.33385305    -0.77729755     0.96109488
 C        0.42493523     1.67131067    -0.44084249
 H       -0.34612734     1.08306979    -2.38367138
 C        1.56428277    -0.17849715     0.83033111
 H        1.60636972    -2.08632023    -0.20579096
 C        0.62790449     1.04118761     0.95237824
 H       -0.22365996     2.55362339    -0.36467069
 H        1.38665093     2.01711542    -0.84147157
 H       -0.60759696     0.15361957     2.51214161
 H       -1.40499893     1.44879325     1.62072671
 H        1.07368731     1.78048500     1.62864554
 H        2.54519426     0.13630356     0.45134995
 H        1.73326809    -0.62434873     1.81905712
