29
1-Methyladamantane
 C        1.26757699    -0.00025042     0.00004933
 C        0.72453576     0.30330296    -1.41609037
 C       -0.81671579     0.30444471    -1.42129176
 H        1.10307016    -0.44587545    -2.12452555
 H        1.10301410     1.27720103    -1.75490249
 C        0.72437856    -1.37822033     0.44547597
 C       -1.33096136    -1.07817095    -0.97391790
 C       -0.81676779    -1.38307134     0.44695144
 H        1.10278841    -2.15903551    -0.22802577
 H        1.10288704    -1.61694505     1.44858625
 H       -0.98934190    -1.85241027    -1.67300845
 H       -2.42824693    -1.09618612    -0.98996845
 C       -1.33110982    -0.30425148     1.42047637
 H       -1.17780205    -2.36841525     0.76549115
 C       -1.33063388     1.38272025    -0.44678265
 H       -1.17752850     0.52144883    -2.43391942
 C        0.72460050     1.07469472     0.97072421
 C        2.79869500    -0.00007063     0.00000740
 C       -0.81665368     1.07875614     0.97445172
 H       -2.42791088     1.40679072    -0.45454829
 H       -0.98788316     2.37491806    -0.76759382
 H       -0.98999410    -0.52297317     2.44060310
 H       -2.42840929    -0.30914330     1.44366797
 H       -1.17749485     1.84719727     1.66868989
 H        1.10317599     2.06256191     0.67531226
 H        1.10354158     0.88206728     1.98353293
 H        3.19485451    -0.75872450    -0.68518966
 H        3.19484629    -0.21396798     0.99967224
 H        3.19416870     0.97287718    -0.31451389
