32
2,2-Dimethyladamantane
 C       -0.41684956     0.00018370     1.25277402
 C        0.49652344    -1.24702645     1.26207654
 C        1.38389702    -1.25642811     0.00011193
 H       -0.09082394    -2.16867360     1.32404827
 H        1.12883678    -1.22417444     2.15909315
 C       -1.34817546    -0.00007937     0.00014091
 C        0.49613778    -1.24782813    -1.26149378
 C       -0.41687657    -0.00039440    -1.25253043
 C       -2.28459604    -1.22754169     0.00016371
 C       -2.28437065     1.22755877    -0.00019484
 H       -0.09160282    -2.16930470    -1.32302478
 H        1.12794752    -1.22582996    -2.15885379
 C        0.49606751     1.24711418    -1.26204499
 H       -1.04166430    -0.00064563    -2.15558908
 C        2.27603479     0.00011102    -0.00012798
 H        2.01263337    -2.15499577     0.00038432
 C        0.49611702     1.24770117     1.26148260
 H       -1.04143181     0.00025648     2.15599144
 C        1.38380562     1.25656098    -0.00033891
 H        2.92971006    -0.00000478    -0.88198576
 H        2.92916119     0.00012828     0.88214968
 H       -0.09171530     2.16854914    -1.32344562
 H        1.12802235     1.22502029    -2.15930352
 H        2.01230314     2.15529011    -0.00059045
 H        1.12796718     1.22571301     2.15881989
 H       -0.09176857     2.16910106     1.32239669
 H       -2.93296342     1.21001857    -0.88373313
 H       -1.76065460     2.18422348    -0.00014308
 H       -2.93313953     1.21021821     0.88319826
 H       -2.93178402    -1.21088730    -0.88441144
 H       -2.93473400    -1.20896216     0.88253451
 H       -1.76098685    -2.18422685     0.00224093
