38
trans-syn-trans-Tetradecahydroanthracene
 C        1.26890061    -0.67851992    -0.46340602
 C        1.04229976     0.59007882     0.38164553
 C        0.09859707    -1.65986622    -0.27566471
 C        2.61081877    -1.34479029    -0.11738457
 C       -0.28771661     1.30085373     0.00868946
 C        2.23971193     1.55087291     0.28525276
 C       -1.31403009    -1.01906063    -0.40672306
 C        3.79376332    -0.37435469    -0.23340453
 C       -1.23561740     0.45462112    -0.86867033
 C        3.56917881     0.87054675     0.63579850
 C       -2.13617452    -1.15760304     0.88869208
 C       -2.64427323     1.07410158    -0.97407479
 C       -3.54218320    -0.55967936     0.74272257
 C       -3.47674396     0.91073372     0.30743418
 H        1.31478930    -0.37716300    -1.52127773
 H        0.97397475     0.25369478     1.42811393
 H        0.20724129    -2.48626224    -0.98804493
 H        0.19484553    -2.11213498     0.72110365
 H        2.56066722    -1.72738600     0.91283278
 H        2.76791744    -2.21895763    -0.76188007
 H       -0.79648635     1.61613543     0.92615080
 H       -0.06620459     2.22730936    -0.53661723
 H        2.29413182     1.94112552    -0.74191229
 H        2.06989040     2.41939771     0.93419986
 H       -1.86724504    -1.56187248    -1.18584367
 H        4.72529353    -0.87756479     0.05100040
 H        3.91300179    -0.06712417    -1.28192123
 H        4.39926584     1.57664948     0.51636656
 H        3.56028342     0.57594293     1.69466048
 H       -2.20116448    -2.21754812     1.16439641
 H       -1.60945134    -0.65997162     1.71530153
 H       -2.56373682     2.13540674    -1.24112970
 H       -3.17886063     0.58741659    -1.80159636
 H       -4.10052342    -1.13541516    -0.00923493
 H       -4.09746682    -0.65592165     1.68313824
 H       -3.04099249     1.50836053     1.11861412
 H       -4.48613080     1.30679131     0.14611335
 H       -0.81267029     0.44995596    -1.88172484
