37
1-Methyldiamantane
 C       -1.85184529    -0.87358381    -1.25856871
 C       -0.31576394    -0.91343585    -1.25389084
 C        0.28325743     0.51773878    -1.25127735
 C        0.19277041    -1.66510502     0.00015166
 C       -2.34834197    -0.14154832     0.00010831
 C       -1.85165896    -0.87319309     1.25889992
 C       -1.78182228     1.28459863    -0.00022591
 C       -0.23454509     1.28947848    -0.00004095
 C        0.28334969     0.51820689     1.25147291
 C        0.21949376     2.75832079    -0.00037871
 C        1.82251838     0.42302840    -1.26040634
 C       -0.31560357    -0.91297505     1.25399043
 C        1.72769771    -1.74215879     0.00017287
 C        1.82262519     0.42376435     1.26010959
 C        2.30990761    -0.31793722     0.00001873
 H       -2.21415221    -0.36148582    -2.15956756
 H       -2.25279479    -1.89511219    -1.28973352
 H        0.03816382    -1.43740397    -2.15219001
 H       -0.05369859     1.04639325    -2.15409956
 H       -0.22540016    -2.68094005     0.00059044
 H       -3.44430417    -0.10295154     0.00016619
 H       -2.25249484    -1.89477189     1.29046210
 H       -2.21369716    -0.36089983     2.15986485
 H       -2.14335597     1.83410021     0.87970354
 H       -2.14309878     1.83322463    -0.88083963
 H       -0.05370003     1.04685861     2.15426499
 H       -0.16872069     3.27749453    -0.88464282
 H        1.30443663     2.88106623     0.00017088
 H       -0.16985794     3.27787076     0.88312410
 H        2.14784019    -0.11758438    -2.15883835
 H        2.27530323     1.41877255    -1.31849162
 H        0.03821933    -1.43698850     2.15230791
 H        2.07675823    -2.29513883    -0.88170928
 H        2.07684270    -2.29505120     0.88206950
 H        2.14903095    -0.11552796     2.15900037
 H        2.27528608     1.41966273     1.31675889
 H        3.40538628    -0.36493553     0.00001410
