37
4-Methyldiamantane
 C       -1.53005661    -0.70206820    -1.26290784
 C        0.00738727    -0.70378722    -1.26571612
 C        0.55048226    -1.45035878    -0.02354149
 C        0.55050674     0.74549806    -1.24410081
 C       -2.07598643    -0.00005625     0.00005447
 C       -1.52993356     1.44472918     0.02348345
 C       -1.52998963    -0.74287065     1.23939898
 C       -3.60712922     0.00020014     0.00004568
 C        0.00740253    -0.74445508     1.24218668
 C        0.55046422     0.70478695     1.26759279
 C        2.08914863    -1.44966143    -0.02358382
 C        0.00745403     1.44814069     0.02345022
 C        2.08915579     0.74533714    -1.24369284
 C        2.08913133     0.70443545     1.26732753
 C        2.60887866     0.00009915     0.00000922
 H       -1.90640631    -0.19310451    -2.16084064
 H       -1.90662325    -1.73325958    -1.30461735
 H        0.36814578    -1.20780939    -2.17264859
 H        0.18502274    -2.48611820    -0.04046286
 H        0.18480645     1.27763436    -2.13274713
 H       -1.90609218     1.96823095     0.91310663
 H       -1.90644025     1.99641009    -0.84873840
 H       -1.90634356    -0.26325485     2.15327063
 H       -1.90646178    -1.77491003     1.24744575
 H       -4.00304847     0.49725889     0.89342353
 H       -4.00296875     0.52556186    -0.87704005
 H       -4.00342764    -1.02187190    -0.01628542
 H        0.36813286    -1.27749672     2.13236582
 H        0.18462728     1.20792097     2.17293671
 H        2.46447638    -2.00005516     0.84906450
 H        2.46435358    -1.97159620    -0.91362975
 H        0.36796048     2.48567342     0.04039922
 H        2.46442276     0.26455496    -2.15654631
 H        2.46452664     1.77701460    -1.25053723
 H        2.46458819     1.73530409     1.30773886
 H        2.46428761     0.19427769     2.16419583
 H        3.70528610     0.00000198     0.00007373
