19
Bicyclo[4.1.0]heptane
 C        0.23539219     1.51481704     0.27062222
 C        1.35082262     0.76793611    -0.47851055
 C        1.58741837    -0.61219925     0.14623668
 H        2.26896378     1.36509285    -0.44946470
 H        1.09235969     0.65418788    -1.54001329
 C        0.35596263    -1.52207718    -0.00463465
 H        1.81689900    -0.47991476     1.21244787
 H        2.46090594    -1.09681997    -0.30450341
 C       -1.02340489     0.68378010     0.46219837
 H       -0.00725313     2.45442144    -0.24224771
 H        0.61844190     1.79462781     1.26168877
 C       -0.96184102    -0.82810152     0.35022001
 H        0.48050104    -2.40715722     0.62861242
 H        0.31024149    -1.89428944    -1.03657164
 C       -1.69062609    -0.01266580    -0.69488407
 H       -1.69771188     1.07587172     1.21958867
 H       -1.59686109    -1.38040304     1.03675165
 H       -1.22983134     0.06206279    -1.67597982
 H       -2.77497849    -0.04634751    -0.72050713
