26
2,6,6-Trimethylbicyclo[3.1.1]hept-2-ene
 C       -0.87083857    -1.15333055     0.22866531
 C       -0.31806141    -0.60278614     1.57364317
 C        0.10988441     0.65247367     0.75350107
 H       -1.10009473    -0.39979665     2.30586008
 H        0.48695271    -1.16608738     2.05176730
 C       -1.10161300     0.33923039    -0.21042164
 C       -2.42754618     0.90045439     0.32445695
 C       -0.99560295     0.70445181    -1.69109730
 C        0.29231904    -1.78987072    -0.55534094
 H       -1.74634377    -1.81045273     0.25398614
 C        1.50183279    -0.87970405    -0.53060920
 H       -0.00820771    -1.99613770    -1.59291465
 H        0.54074870    -2.76837160    -0.11940831
 C        1.42782336     0.31048403     0.07533231
 H        0.13012608     1.62803836     1.24828333
 H       -2.59698459     0.68507208     1.38176112
 H       -3.27162693     0.48162515    -0.23630333
 H       -2.46010899     1.98919355     0.19998221
 H       -0.05376947     0.38794445    -2.14102914
 H       -1.08078097     1.78978360    -1.82447252
 H       -1.81577555     0.24555961    -2.25652030
 H        2.41300232    -1.20962897    -1.02438286
 C        2.55230558     1.30203624     0.13857183
 H        3.44852417     0.93130539    -0.36734457
 H        2.81806445     1.53626453     1.17803165
 H        2.26613351     2.25422943    -0.32776691
