28
Bicyclo[3.3.2]decane
 C        0.52694682     1.41189064    -0.17867706
 C        1.81165539     0.83024813     0.45470114
 C        1.94411480    -0.70192506     0.42922399
 H        1.87637079     1.18595097     1.49131728
 H        2.68365217     1.25368796    -0.06020742
 C        0.67895433    -1.47686601     0.82076050
 H        2.75719694    -0.99159321     1.10651105
 H        2.26954859    -1.02330642    -0.56721104
 C       -0.52652804    -1.41174868    -0.17955804
 H        0.35008504    -1.14590438     1.81300173
 H        0.96096753    -2.52876155     0.94642152
 C        0.18863480     0.75715332    -1.53497045
 C       -0.18838749    -0.75579715    -1.53543683
 H        1.05013286     0.90281906    -2.19825929
 H       -0.62429807     1.32996020    -1.99415915
 H       -1.05025536    -0.90081395    -2.19838452
 H        0.62413669    -1.32855446    -1.99538851
 C       -0.67938719     1.47720494     0.82064976
 H        0.77000898     2.45435090    -0.41872411
 C       -1.94416707     0.70093946     0.42985290
 H       -0.96286787     2.52899304     0.94412162
 H       -0.35120903     1.14891853     1.81407400
 C       -1.81155201    -0.83124307     0.45390633
 H       -2.27122586     1.02272288    -0.56594381
 H       -2.75659834     0.98986162     1.10824966
 H       -2.68326624    -1.25410468    -0.06198811
 H       -1.87693884    -1.18834971     1.48999141
 H       -0.76882558    -2.45416837    -0.42067169
