21
Bicyclo[4.4.1]undeca-1,3,5,7,9-pentaene
 C        0.00001609    -1.13686453    -0.27922564
 C       -0.00003357    -0.00003093    -1.24561843
 C       -0.00002490     1.13680150    -0.27923121
 H        0.89592463    -0.00002542    -1.86725625
 H       -0.89606305    -0.00006520    -1.86713875
 C       -1.25972443    -1.56156316     0.18411778
 C       -2.35765695    -0.71190001     0.24810827
 C       -2.35767287     0.71186487     0.24802842
 C       -1.25976520     1.56155105     0.18400127
 C        1.25983075    -1.56155128     0.18399814
 C        1.25968733     1.56154220     0.18408672
 C        2.35770693    -0.71181295     0.24804340
 C        2.35763724     0.71195235     0.24808563
 H        1.35610877     2.55464960     0.61837684
 H        1.35637274    -2.55466312     0.61825820
 H        3.30235831     1.16487562     0.54034355
 H        3.30248369    -1.16463887     0.54026582
 H       -1.35613650    -2.55463405     0.61849355
 H       -3.30239686    -1.16477766     0.54036579
 H       -3.30242718     1.16475166     0.54022709
 H       -1.35622969     2.55465693     0.61828324
