22
Bicyclo[5.1.0]octane
 C        1.16780550     0.75479929     0.40697206
 C        1.16780132    -0.75480250     0.40697200
 C        2.26769663    -0.00000370    -0.30190880
 C        0.10056865     1.52621770    -0.34943821
 C        0.10056114    -1.52621961    -0.34943617
 C       -1.31372781     1.31406949     0.22520533
 C       -1.31373707    -1.31406512     0.22520351
 C       -1.98983711     0.00000448    -0.20521235
 H        1.44726773     1.21634446     1.35190253
 H        1.44726257    -1.21634835     1.35190230
 H        3.26463692    -0.00000559     0.12669726
 H        2.25409878    -0.00000175    -1.38837540
 H        0.35183800     2.59396044    -0.32455029
 H        0.10424707     1.24433090    -1.40996205
 H        0.10423988    -1.24433844    -1.40996153
 H        0.35182821    -2.59396277    -0.32454334
 H       -1.26978844     1.36790678     1.32174483
 H       -1.95834350     2.14273255    -0.09424137
 H       -1.95835407    -2.14272500    -0.09424880
 H       -1.26980164    -1.36790665     1.32174298
 H       -2.07913131     0.00000549    -1.30154965
 H       -3.01812904     0.00000756     0.17859487
