31
Bicyclo[3.3.3]undecane
 C       -1.68419698    -0.04091458     0.10118237
 C       -1.35531744     0.06055563    -1.41247511
 C        0.00240243     0.60510539    -1.91511013
 H       -1.52778107    -0.93173282    -1.84989487
 H       -2.11330410     0.70702502    -1.87400594
 C        1.35644582     0.05219685    -1.41189638
 H        0.00212221     0.45572703    -3.00345100
 H        0.00592734     1.69022825    -1.79212867
 C        1.68389108    -0.04950072     0.10208482
 H        1.52268176    -0.94159097    -1.84827124
 H        2.11870490     0.69337569    -1.87374111
 C       -1.30998725    -1.41787487     0.71715092
 C       -1.33027818     1.18479324     0.98805945
 H       -2.78162208    -0.05079291     0.13185056
 C       -0.00524464    -2.09454350     0.29473559
 H       -1.33511928    -1.33464547     1.81221182
 H       -2.11878561    -2.11318902     0.45675984
 C        1.30161398    -1.42365135     0.71966947
 H       -0.00804930    -3.10593068     0.72195816
 H       -0.00433347    -2.24497912    -0.79158511
 H        1.32466962    -1.33878559     1.81461176
 H        2.10759282    -2.12339980     0.46244697
 C        1.33620549     1.17929316     0.98700290
 H        2.78121252    -0.06538757     0.13348937
 C        0.00438921     1.93567575     0.84918188
 H        1.45668239     0.86420632     2.03252368
 H        2.11998154     1.93109280     0.82354562
 H        0.00640538     2.70396602     1.63465951
 H        0.00526835     2.50226459    -0.08463088
 H       -2.11117642     1.94013414     0.82732903
 H       -1.45016665     0.86796779     2.03311917
