25
cis-Bicyclo[6.1.0]nonane
 C       -1.95173768     0.62893325     0.26045660
 C       -1.75370479    -0.64365273    -0.59817620
 C       -0.99614762     1.80421450    -0.02447420
 C       -1.01956145    -1.81268444     0.08298974
 C        0.38015530    -1.49472201     0.63810161
 C        2.49541360    -0.02532115     0.05791107
 C        1.29609756     0.70609026    -0.49917238
 C        1.27318814    -0.80167130    -0.36884197
 C        0.47548193     1.62432896     0.38950415
 H       -1.90265937     0.37175025     1.32771196
 H       -2.97026455     1.00071152     0.09756643
 H       -1.23355733    -0.37530721    -1.52523465
 H       -2.73621414    -1.01825202    -0.90903674
 H       -1.38625311     2.68594810     0.49992473
 H       -1.04247166     2.04810779    -1.09543775
 H       -0.93442163    -2.63090526    -0.64476088
 H       -1.64159825    -2.20051716     0.90061575
 H        0.84988110    -2.43107895     0.96703231
 H        2.68190423     0.06841917     1.12444344
 H        1.40377685     1.07943991    -1.51609924
 H        0.95834100     2.61084732     0.38713792
 H        0.51879756     1.28282478     1.43114192
 H        3.39648976    -0.09677658    -0.54235554
 H        0.29239671    -0.87767861     1.53917966
 H        1.37420299    -1.34506757    -1.30716279
