46
9,9-Bianthracene
 C        0.74991390     0.00022591    -0.00017600
 C        1.45449421    -0.86642617    -0.86477151
 C        1.45537036     0.86661982     0.86399775
 C       -0.74989614     0.00046001     0.00031320
 C        2.89840961    -0.86312233    -0.86134678
 C        0.79138745    -1.76381576    -1.76013986
 C        2.89926509     0.86263680     0.85985791
 C        0.79308593     1.76428740     1.75968951
 C       -1.45526211     0.86760722    -0.86316908
 C       -1.45461602    -0.86690142     0.86416071
 C        3.57922021    -0.00039006    -0.00091725
 C        3.59614313    -1.74562056    -1.74143580
 C        1.49789093    -2.59275009    -2.58679373
 C        3.59774586     1.74481744     1.73968503
 C        1.50028834     2.59287614     2.58608374
 C       -2.89916033     0.86350077    -0.85922562
 C       -0.79295064     1.76614455    -1.75799144
 C       -2.89849447    -0.86386512     0.86036905
 C       -0.79153269    -1.76477226     1.75907228
 C        2.92059465    -2.58610918    -2.57978594
 C        2.92297584     2.58554028     2.57842154
 C       -3.57921064    -0.00048365     0.00053930
 C       -3.59765267     1.74645305    -1.73825693
 C       -1.50017147     2.59553526    -2.58356956
 C       -3.59622472    -1.74739322     1.73943440
 C       -1.49802558    -2.59463215     2.58480572
 C       -2.92286182     2.58810195    -2.57605056
 C       -2.92071799    -2.58844465     2.57724896
 H       -0.29202745    -1.77685590    -1.77383070
 H       -0.29032260     1.77796918     1.77354835
 H        4.66638115    -0.00064265    -0.00119371
 H        4.68227703    -1.73103918    -1.72683094
 H        0.97158859    -3.26475818    -3.25732439
 H        4.68385711     1.72989330     1.72458730
 H        0.97457398     3.26512227     3.25683748
 H        0.29044959     1.77991567    -1.77185534
 H        0.29188783    -1.77751346     1.77300570
 H        3.46303809    -3.25176529    -3.24360233
 H        3.46603566     3.25093063     3.24200192
 H       -4.66637900    -0.00098923     0.00038987
 H       -4.68377928     1.73131362    -1.72331669
 H       -0.97447228     3.26849578    -3.25361789
 H       -4.68235632    -1.73321191     1.72444667
 H       -0.97173915    -3.26702480     3.25496226
 H       -3.46590814     3.25409771    -3.23903251
 H       -3.46320261    -3.25488964     3.24024103
