36
1,12-Dimethylbenz-a-anthracene
 C        2.07640467     2.35791051     0.27578531
 C        0.78728411     2.60888574    -0.03682656
 C        2.59431439     1.01211488     0.26230840
 C       -0.17001094     1.53845342    -0.15523425
 C        1.71708469    -0.08197277    -0.01577272
 C        0.26648350     0.17290551     0.04231705
 C       -1.51387058     1.82863451    -0.31790372
 C       -0.70667217    -0.78550391     0.36906090
 C       -2.09144876    -0.48332297     0.18854081
 C       -2.49623385     0.83094620    -0.21720999
 C        3.97622969     0.80331981     0.39025949
 C        2.31263488    -1.30384451    -0.43477413
 C        4.52232374    -0.44483759     0.15287153
 C        3.69411601    -1.46570570    -0.30952331
 H        4.61186953     1.64815284     0.63868577
 H       -1.81858274     2.85964724    -0.47788674
 H        2.77671265     3.16960774     0.44993301
 H        0.42136937     3.62740742    -0.12773692
 H        4.13397396    -2.40863292    -0.62315775
 C       -3.87524692     1.11034704    -0.41986579
 C       -3.11440938    -1.45226793     0.39625196
 C       -4.82712590     0.14250681    -0.22968924
 C       -4.43835975    -1.15362739     0.18469069
 H       -4.15846573     2.11329976    -0.72655972
 H       -5.87704235     0.36544483    -0.39066191
 H       -2.84337206    -2.45527633     0.70301816
 H       -5.19455220    -1.91800087     0.33371053
 H        5.59035734    -0.60956816     0.25290906
 C        1.56814261    -2.40085809    -1.16897690
 H        0.58632705    -2.07288635    -1.51259467
 H        2.15032009    -2.69737205    -2.04742836
 H        1.42928018    -3.30120391    -0.56231606
 C       -0.36222471    -2.08365149     1.06750386
 H        0.68641135    -2.11385353     1.36052040
 H       -0.96255666    -2.16789920     1.97978002
 H       -0.57254665    -2.97408874     0.46624480
