36
3,9-Dimethylbenza-a-anthracene
 C        2.15597682     2.20515480    -0.00085761
 C        0.82249746     2.43698228    -0.00032904
 C        2.68445178     0.86642447    -0.00064084
 C       -0.12615522     1.35586586     0.00000236
 C        1.79521021    -0.24133280    -0.00017011
 C        0.35321590    -0.00293717    -0.00041823
 C       -1.49533410     1.60901442     0.00045202
 C       -0.58953455    -1.02730648    -0.00110055
 C       -1.97171177    -0.77872520    -0.00086719
 C       -2.44340316     0.57595580     0.00021995
 C        4.07688444     0.64680273    -0.00053004
 C        2.36512925    -1.53096233     0.00081215
 C        4.62170180    -0.62504876     0.00037914
 C        3.73310737    -1.71828843     0.00114048
 H        4.73408906     1.51313537    -0.00094404
 H       -1.83880721     2.64064515     0.00093005
 H        2.86039549     3.03219339    -0.00121447
 H        0.43721326     3.45267265    -0.00029465
 H        4.13319534    -2.72868360     0.00206773
 C       -3.84722129     0.81783221     0.00087895
 C       -2.93618362    -1.82730620    -0.00152053
 C       -4.75865902    -0.20797887     0.00045549
 C       -4.27572704    -1.55186570    -0.00089554
 H       -4.19133852     1.84924669     0.00178097
 C       -6.24487794     0.04630231     0.00156434
 H       -2.58640577    -2.85603985    -0.00252827
 H       -4.99575585    -2.36578300    -0.00131461
 C        6.11332139    -0.85044375     0.00085331
 H        1.72426029    -2.40516422     0.00159608
 H       -0.26987386    -2.06391801    -0.00195533
 H        6.66004454     0.09623353    -0.00030034
 H        6.42969048    -1.42038887     0.88224259
 H        6.42996631    -1.42270233    -0.87893314
 H       -6.46762466     1.11646761     0.00211083
 H       -6.72480740    -0.39825786    -0.87853156
 H       -6.72345844    -0.39885439     0.88209286
