30
Tetraphene
 C       -0.34164656     0.06808079     0.00004207
 C       -1.77037146     0.38556697     0.00013931
 C        0.06327244    -1.31521339     0.00034524
 C        0.65357945     1.04000195    -0.00047473
 C       -2.71662198    -0.67664874    -0.00056400
 C       -2.26262755     1.70601668     0.00102715
 C        1.41602327    -1.64106228     0.00066764
 C       -0.94150444    -2.34485752    -0.00000850
 C        2.02239734     0.71995443    -0.00033524
 C       -2.25999211    -2.04194927    -0.00067533
 C       -4.09483403    -0.38334508    -0.00081634
 C       -3.62007999     1.97258108     0.00096215
 C        2.41859644    -0.66009604     0.00043403
 C        3.03510469     1.72128675    -0.00090547
 C       -4.54758971     0.92128694    -0.00010034
 C        3.80703821    -0.97662287     0.00069160
 C        4.36195834     1.38014766    -0.00062737
 C        4.75273886     0.01437522     0.00021126
 H        0.38988713     2.09207439    -0.00130218
 H       -1.57084645     2.54019187     0.00197626
 H        1.70426808    -2.68939523     0.00105526
 H       -0.61060707    -3.37945984     0.00014274
 H       -3.00815578    -2.82954041    -0.00105994
 H       -4.80092217    -1.20898047    -0.00150550
 H       -3.96583807     3.00137975     0.00176662
 H        2.73338178     2.76497424    -0.00162560
 H       -5.61208576     1.13219520    -0.00020240
 H        4.10123357    -2.02235252     0.00124783
 H        5.12386043     2.15314474    -0.00103598
 H        5.80824006    -0.23857256     0.00038667
