20
Biphenylene
 C        1.91142130    -1.44378126     0.00000289
 C        3.11563988    -0.69367056     0.00000058
 C        0.75334326    -0.71138305    -0.00000880
 C        3.11560804     0.69369167     0.00000557
 C        1.91138150     1.44379160    -0.00000187
 C        0.75330982     0.71139382    -0.00002039
 C       -0.75330980    -0.71139378     0.00002032
 C       -0.75334329     0.71138308     0.00000876
 C       -1.91138147    -1.44379160     0.00000180
 C       -3.11560802    -0.69369171    -0.00000558
 C       -3.11563990     0.69367053    -0.00000048
 C       -1.91142133     1.44378125    -0.00000281
 H       -1.93263860    -2.52837917    -0.00004483
 H       -4.06417221    -1.22152260    -0.00001211
 H       -4.06422614     1.22145800     0.00003751
 H       -1.93267860     2.52836898    -0.00001448
 H        1.93267855    -2.52836898     0.00001459
 H        1.93263866     2.52837917     0.00004472
 H        4.06422611    -1.22145805    -0.00003733
 H        4.06417224     1.22152254     0.00001209
