47
1,8-Paracyclophane
 C        0.87990539     2.05699335    -1.29256077
 C        1.95842361     1.18622441    -1.40049767
 C        0.52411623     2.61093418    -0.05990194
 C        2.73350189     0.84906442    -0.28683462
 C        2.45250878     1.50458163     0.91737158
 C        3.77786677    -0.24382185    -0.37962058
 C        1.36262691     2.36527341     1.03042593
 C       -0.84976026     3.24633320     0.12242089
 C       -2.58217243     0.07367354     1.29558265
 C       -1.99740202     1.33460867     1.33287497
 C       -1.83528903     2.08698603     0.16424058
 C       -3.01201815    -0.48534148     0.08539129
 C       -2.97599172     0.32570672    -1.05083947
 C       -3.35738285    -1.95417900    -0.02029100
 C       -2.40442277     1.59551357    -1.01174951
 C        3.58949849    -1.38075881     0.65493327
 C        2.18461240    -2.00235493     0.75193425
 C        1.71776780    -2.83283932    -0.45432160
 C        0.32066411    -3.45263527    -0.23486922
 C       -0.84487145    -2.47224482    -0.46691079
 C       -2.13611692    -2.86846598     0.26675139
 H        0.26329181     2.25004562    -2.16548597
 H        2.17754810     0.72469468    -2.35976859
 H        3.06056957     1.30339326     1.79512708
 H        3.75920786    -0.65774755    -1.39387704
 H        4.78481172     0.17246689    -0.24114118
 H        1.13210293     2.81054757     1.99475050
 H       -0.88165742     3.82954133     1.04843823
 H       -1.08511249     3.92113613    -0.70755029
 H       -2.64492367    -0.51148407     2.20941993
 H       -1.59787505     1.71078697     2.27085670
 H       -3.34770612    -0.06369057    -1.99492795
 H       -4.16291895    -2.22214285     0.67529061
 H       -3.73409059    -2.15938245    -1.02909572
 H       -2.33654066     2.17862942    -1.92622322
 H        4.32596049    -2.16574657     0.43738895
 H        3.85268228    -0.99327381     1.64707426
 H        2.17235733    -2.65690803     1.63401986
 H        1.45733554    -1.20863162     0.95777703
 H        1.70528696    -2.21712592    -1.36342974
 H        2.44735887    -3.63330084    -0.63558216
 H        0.19372871    -4.32398620    -0.88926650
 H        0.27240074    -3.84180437     0.79208491
 H       -0.55121312    -1.46976960    -0.13914186
 H       -1.03727504    -2.38683054    -1.54518802
 H       -2.41060052    -3.90183696     0.01676202
 H       -1.93355634    -2.86272244     1.34593236
