20
3,4-Dimethylidenebicyclo[4.2.0]octa-1,5-diene
 C        1.09885101    -0.71830076     0.09042564
 C        1.09885725     0.71830364    -0.09043723
 C       -0.02023605     1.45424787    -0.14694128
 C        2.62014445     0.78289570    -0.10912232
 C       -0.02023650    -1.45423916     0.14696343
 C        2.62014262    -0.78288919     0.10911453
 C       -1.30145284    -0.75314878    -0.01217463
 C       -1.30146014     0.75316069     0.01220382
 C       -2.42448352    -1.46799203    -0.23227641
 C       -2.42452938     1.46796735     0.23225508
 H       -0.03345416     2.53639061    -0.24033164
 H        3.07789001     1.36080817     0.69927516
 H        3.06021278     1.10931896    -1.05625398
 H       -0.03347694    -2.53639248     0.24028342
 H        3.07790048    -1.36083628    -0.69924854
 H        3.06017914    -1.10929076     1.05626741
 H       -3.37768072    -1.00408138    -0.45481901
 H       -2.40299871    -2.55245548    -0.21123776
 H       -2.40306921     2.55242461     0.21117462
 H       -3.37773744     1.00405052     0.45476362
