28
Tricyclo[4.2.2.2(2,5)]dodeca-3,7-diene_2
 C       -1.39790994     1.24459563    -0.67908630
 C       -1.40637244     1.24838068     0.65386644
 C       -0.79392837     0.05667978    -1.39138329
 C       -0.81719377     0.06200808     1.38175482
 C        0.81716346     0.06434664    -1.38155939
 C        0.79396827     0.05405025     1.39147909
 C        1.40663451     1.24932663    -0.65165543
 C        1.39825405     1.24312488     0.68130752
 C        1.47668267    -1.20208286    -0.77230216
 H        1.11613965     0.11053333    -2.43308860
 C        1.45161141    -1.21379633     0.77983495
 H        1.07973111     0.08697461     2.44714184
 C       -1.45203023    -1.21209792    -0.78203784
 H       -1.07962277     0.09152704    -2.44700530
 C       -1.47684036    -1.20335575     0.77012712
 H       -1.11614799     0.10644647     2.43336410
 H       -2.51750900    -1.20722167     1.10956591
 H       -1.03040197    -2.11409308     1.17702814
 H       -0.97761297    -2.11968044    -1.16290718
 H       -2.48136689    -1.23878534    -1.15350023
 H       -1.79556407     2.07370530    -1.25782667
 H       -1.81181479     2.08060028     1.22265237
 H        1.81233040     2.08240866    -1.21899064
 H        1.79613592     2.07106405     1.26155730
 H        2.51742751    -1.20527308    -1.11148919
 H        1.03034218    -2.11211423    -1.18095170
 H        0.97660668    -2.12182249     1.15886997
 H        2.48085970    -1.24195617     1.15146582
