12
5-Methylidenecyclopenta-1,3-diene
 C       -1.38786599     0.73763940     0.00000643
 C       -1.38779650    -0.73773878     0.00000066
 C       -0.11079553     1.17788138    -0.00000764
 C       -0.11068602    -1.17784422    -0.00000388
 C        0.77441761     0.00006488    -0.00000704
 C        2.11516682     0.00001396     0.00000743
 H       -2.28205429     1.34818220     0.00004013
 H       -2.28192759    -1.34836776    -0.00000470
 H        0.23825570     2.20140448     0.00000593
 H        0.23852559    -2.20131203    -0.00001677
 H        2.68383404    -0.92464326     0.00007031
 H        2.68405408     0.92453853    -0.00004680
