14
3-Methylidenecyclopent-1-ene
 C        1.53451310     0.64196470     0.00059127
 C        1.32432744    -0.85226562     0.00000207
 C        0.02565604    -1.18207041    -0.00033102
 C        0.08987971     1.21780066    -0.00061538
 C       -0.83301078     0.00093418    -0.00013075
 C       -2.16973992     0.01347508     0.00043383
 H        2.11043015     0.96593935     0.87698577
 H        2.11220932     0.96657157    -0.87437802
 H        2.14927630    -1.55652454     0.00003216
 H       -0.37009604    -2.19182029    -0.00058706
 H       -0.09322976     1.84668869     0.87611570
 H       -0.09215269     1.84482021    -0.87892954
 H       -2.74298045    -0.90799823     0.00066324
 H       -2.73560919     0.93932825     0.00069297
