14
Bicyclo[3.1.0]hex-2-ene
 C       -0.67327032    -1.17880979     0.03768368
 C        0.69918801    -0.75208700     0.43952106
 C       -1.46110031    -0.13224548    -0.22471210
 C       -0.75780951     1.18779357     0.02621337
 C        0.66753015     0.76917392     0.39175132
 H       -1.23570848     1.74401125     0.84460848
 H       -0.78912641     1.84695443    -0.85159968
 C        1.47054500     0.00344286    -0.62675693
 H        1.24820368    -1.30336021     1.19580868
 H        1.21095024     1.35633132     1.12319201
 H        1.10720956    -0.05704444    -1.64833403
 H        2.55115016     0.04556729    -0.53096771
 H       -0.95942715    -2.22059296    -0.05910292
 H       -2.47936772    -0.18866124    -0.59393545
