15
5-Methylidenecyclohexa-1,4-diene
 C        1.23048948    -1.15244578     0.06664526
 C        1.82771545     0.04550881     0.09769426
 C        1.05003705     1.27347222    -0.03034986
 C       -0.29628056     1.24701393    -0.08373189
 C       -1.04783962    -0.00164238    -0.02159362
 C       -0.25350423    -1.29699913    -0.15341598
 C       -2.38153545    -0.00423673     0.13044234
 H        1.80951390    -2.06733120     0.15546408
 H        2.90335761     0.12488527     0.22283040
 H        1.57828905     2.22186042    -0.05033182
 H       -0.86659608     2.17074769    -0.13041363
 H       -0.66481399    -2.06253503     0.51583969
 H       -0.40220712    -1.70272149    -1.16817319
 H       -2.95003371    -0.92518091     0.21201744
 H       -2.94446088     0.92254175     0.17501138
