15
Bicyclo[2.2.1]hepta-2,5-diene
 C        0.00002379    -1.12163463     0.28333926
 C        1.24407469    -0.66643421    -0.50872857
 C       -1.24401139    -0.66645519    -0.50880178
 C        1.24406091     0.66641909    -0.50876752
 C       -0.00000254     1.12164589     0.28326547
 C       -1.24403913     0.66639258    -0.50883321
 H        1.93360614    -1.33810792    -1.00310463
 H        1.93360017     1.33807280    -1.00315586
 H       -1.93357532     1.33804838    -1.00322398
 H       -1.93354877    -1.33813194    -1.00316315
 C       -0.00008089     0.00005839     1.36717202
 H       -0.00000825     2.15812244     0.62116160
 H        0.00000712    -2.15809204     0.62128687
 H       -0.90037601     0.00011406     1.98833148
 H        0.89999203     0.00007039     1.98867021
