15
Bicyclo[3.2.0]hepta-2,6-diene
 C        1.56593931     0.63991780    -0.34880854
 C        1.50029047    -0.69508331    -0.38557342
 C        0.37357906     0.78415257     0.59960671
 C        0.31978751    -0.79682519     0.56828044
 C       -0.92952904     1.19821382    -0.03007127
 H        0.58147773     1.26692475     1.56191826
 C       -1.05764675    -1.18086970    -0.02595860
 H        0.53132375    -1.29656694     1.51792112
 C       -1.68045678     0.15266907    -0.38087682
 H       -1.67701996    -1.73126169     0.69443877
 H       -0.96122424    -1.83228909    -0.90542542
 H       -1.19494927     2.23685078    -0.19995200
 H       -2.64043011     0.22149545    -0.88422086
 H        2.20219488     1.37563621    -0.82951410
 H        2.06363569    -1.45736429    -0.91466492
