18
Bicyclo[3.2.1]octa-2,6-diene
 C        0.96626941     1.28926247     0.13684635
 C        1.68391496     0.18886561     0.37649657
 C       -0.46122494     1.16290930    -0.38328492
 C        1.14199632    -1.20592623     0.14370443
 C       -0.33105707    -1.19230416    -0.35048828
 C       -0.49684075    -0.03470405    -1.36059417
 C       -1.25080525    -0.71627527     0.76733570
 C       -1.33229660     0.61518954     0.75249107
 H        1.37396291     2.27752557     0.33160415
 H        2.69704015     0.26390632     0.76576861
 H       -0.82053916     2.10166669    -0.81213457
 H        1.77353235    -1.72332472    -0.59293007
 H        1.22773510    -1.79372908     1.06944546
 H       -0.60125480    -2.17266292    -0.75444251
 H       -1.46808926    -0.09973718    -1.86068848
 H        0.29485718     0.00801642    -2.11443764
 H       -1.68495584    -1.37844349     1.50849946
 H       -1.83922402     1.24255302     1.47692658
