18
Tetracyclo[3.3.0.0(2,8).0(4,6)]octane
 C       -1.20257188    -0.75616602     0.13852807
 C       -1.20227777     0.75663775     0.13855291
 C       -0.75898988     0.00017897    -1.10156406
 C        0.75901382    -0.00011220    -1.10157230
 H       -1.32201245     0.00026837    -2.02630786
 C        1.20224447    -0.75658938     0.13855509
 C        1.20254374     0.75616030     0.13853413
 H        1.32202479    -0.00024604    -2.02632391
 C       -0.00026787    -1.44834443     0.76753141
 H       -2.16491717    -1.25753641     0.16351955
 H       -0.00032501    -1.37589423     1.86295847
 H       -0.00046908    -2.51541850     0.51369170
 H        2.16436947    -1.25838104     0.16356845
 C        0.00030145     1.44827546     0.76760882
 H       -2.16440905     1.25841158     0.16356497
 H        0.00052739     2.51543126     0.51413383
 H        0.00037561     1.37534032     1.86297861
 H        2.16488205     1.25754327     0.16351549
