13
Trimethylamine
 N       -0.00000000     0.00002028    -0.34105896
 C       -0.00003410    -1.38809517     0.08464427
 C        1.20216620     0.69401157     0.08465544
 C       -1.20213210     0.69407062     0.08465543
 H       -0.00003719    -1.50712281     1.18677799
 H        0.88639545    -1.89743431    -0.30754867
 H       -0.88648848    -1.89739086    -0.30754896
 H        1.30542361     0.75338744     1.18679649
 H        1.20004742     1.71638284    -0.30745147
 H        2.08643337     0.18102732    -0.30769399
 H       -1.30538668     0.75345136     1.18679649
 H       -2.08642448     0.18112994    -0.30769414
 H       -1.19996297     1.71644189    -0.30745123
