11
Pyridine
 N        1.38917585     0.00000001    -0.00000000
 C       -1.41089661    -0.00000001     0.00000000
 C        0.69319638    -1.13980714     0.00000000
 C        0.69319636     1.13980716    -0.00000000
 C       -0.69937407     1.19622494     0.00000000
 C       -0.69937405    -1.19622495    -0.00000000
 H       -2.49641249    -0.00000002    -0.00000000
 H        1.27838714    -2.05736934     0.00000000
 H        1.27838711     2.05736936    -0.00000000
 H       -1.20781145     2.15452284     0.00000000
 H       -1.20781141    -2.15452286    -0.00000000
