11
Methyl acetate
 C        0.46065928     0.13139141     0.00000002
 O        0.33549410     1.32918582     0.00000001
 O       -0.58102016    -0.72639185     0.00000006
 C        1.77148094    -0.62006708    -0.00000003
 C       -1.87574331    -0.11622186    -0.00000005
 H        2.59699394     0.09064435     0.00000072
 H        1.83359045    -1.26567704     0.88072500
 H        1.83359105    -1.26567574    -0.88072598
 H       -2.59192692    -0.93845939     0.00000007
 H       -2.00956410     0.50740806     0.88792332
 H       -2.00956408     0.50740778    -0.88792362
