15
2-Methylpropan-2-ol
 C        0.00740307    -0.00000000    -0.02724422
 O       -0.21054525    -0.00000003     1.38845666
 C       -1.39415424    -0.00000027    -0.64250788
 C        0.77991297     1.26414087    -0.43313460
 C        0.77991346    -1.26414058    -0.43313458
 H        0.65070879     0.00000016     1.81830280
 H       -1.34122718    -0.00000027    -1.73526147
 H       -1.94925089     0.88558474    -0.32000093
 H       -1.94925056    -0.88558550    -0.32000092
 H        0.91827423     1.31898376    -1.51806625
 H        1.77475529     1.27617322     0.02863908
 H        0.24184002     2.15835029    -0.10541643
 H        0.91827468    -1.31898346    -1.51806623
 H        1.77475581    -1.27617251     0.02863906
 H        0.24184088    -2.15835020    -0.10541634
