14
1,4-Dioxane
 H       -1.26773073     2.02357734     0.20396288
 H       -1.26773076    -2.02357729     0.20396297
 C        0.73105876     1.16815911     0.21860463
 C        0.73105875    -1.16815912     0.21860462
 H        1.26773073    -2.02357732    -0.20396293
 C       -0.73105876    -1.16815912    -0.21860460
 C       -0.73105873     1.16815912    -0.21860462
 H        0.78428368     1.22557442     1.31874701
 H        0.78428369    -1.22557446     1.31874699
 O        1.38925677    -0.00000001    -0.24297060
 H       -0.78428369    -1.22557449    -1.31874698
 H       -0.78428362     1.22557446    -1.31874700
 O       -1.38925679     0.00000002     0.24297058
 H        1.26773076     2.02357731    -0.20396287
