16
2-Methylpropan-2-amine
 C       -1.26189730     0.58947304     0.65016021
 C       -0.00000835    -0.00522266     0.00748860
 C        1.25410050     0.60475435     0.65109526
 C        0.00937412    -1.53681233     0.19031640
 N       -0.00189187     0.39291728    -1.41425806
 H        0.01092306    -1.82159927     1.24890867
 H       -0.87374738    -1.98884098    -0.27588974
 H        0.89828138    -1.97774069    -0.27553144
 H        1.26224365     1.69000914     0.51703498
 H        1.29472054     0.38222553     1.72211505
 H        2.16455202     0.20061656     0.19272370
 H       -1.30105361     0.36647967     1.72116600
 H       -1.28317165     1.67457196     0.51626459
 H       -2.16706357     0.17448408     0.19103587
 H       -0.81020464    -0.01436313    -1.87879440
 H        0.81212488    -0.00387956    -1.87790704
