21
2-(propan-2-yloxy)propane
 O        0.00000005     0.00000077     0.50706882
 C        1.20045469     0.14281192    -0.24398160
 C       -1.20045458    -0.14281168    -0.24398139
 C        2.18218052     0.91127063     0.63645221
 C       -2.18217957    -0.91127133     0.63645254
 C        1.75036427    -1.22622209    -0.65899217
 C       -1.75036539     1.22622183    -0.65899194
 H        1.00184743     0.73569474    -1.15102987
 H       -1.00184689    -0.73569436    -1.15102963
 H        1.02923100    -1.77882361    -1.26913622
 H       -1.02923233     1.77882415    -1.26913553
 H        2.66850365    -1.11577173    -1.24578532
 H       -2.66850441     1.11577068    -1.24578550
 H        1.97536728    -1.82534187     0.22930225
 H       -1.97536937     1.82534122     0.22930250
 H        1.77412841     1.89069990     0.90024662
 H       -1.77412646    -1.89070022     0.90024684
 H        2.36742122     0.35870611     1.56331695
 H       -2.36742068    -0.35870704     1.56331734
 H        3.13778937     1.05511278     0.12273679
 H       -3.13778836    -1.05511441     0.12273727
