11
1,2-Dibromopropane
 C       -0.46664113    -0.50915769    -0.39314464
 C        0.44979808     0.46763495     0.31919743
 C        0.36684729     1.90849348    -0.15424553
Br       -2.36296745    -0.12689663     0.03397646
Br        2.30139138    -0.22375600     0.01296613
 H       -0.30447314    -1.53416312    -0.06986967
 H       -0.38268010    -0.43604174    -1.47653206
 H        0.32504885     0.38965483     1.39888676
 H        1.08958305     2.53229542     0.37492314
 H       -0.63800659     2.29605217     0.04119202
 H        0.56483535     1.98053931    -1.22741155
