13
Phenol
 C        0.91951264    -0.00196214     0.00000000
 C        0.21871906    -1.21012417     0.00000000
 C       -1.17456413    -1.20294420     0.00000000
 C       -1.87578807     0.00026658    -0.00000000
 C       -1.16753053     1.20253167     0.00000000
 C        0.22291300     1.20911948     0.00000000
 O        2.28119080     0.05599912    -0.00000000
 H        2.63453931    -0.83888657    -0.00000001
 H        0.76332104    -2.15150566     0.00000000
 H       -1.71062097    -2.14690844    -0.00000000
 H       -2.96023912     0.00256064    -0.00000001
 H       -1.70242331     2.14723847    -0.00000000
 H        0.78598130     2.13582268     0.00000000
