13
Oxolane
 O        1.20365523     0.00000056     0.00000055
 C        0.38856968    -1.16221477     0.13400790
 C        0.38856870     1.16221487    -0.13400878
 C       -1.04104492    -0.73542620    -0.22213268
 C       -1.04104527     0.73542551     0.22213305
 H        0.77928870    -1.94683075    -0.52423923
 H        0.44247052    -1.53299666     1.16941954
 H        0.77928736     1.94683236     0.52423673
 H        0.44246861     1.53299505    -1.16942112
 H       -1.20310476    -0.80628083    -1.30331066
 H       -1.80116321    -1.34317247     0.27502107
 H       -1.20310408     0.80628007     1.30331119
 H       -1.80116442     1.34317129    -0.27501999
