14
Cyclopentanone
 C        0.85416273    -0.00000000    -0.00000002
 O        2.05724213    -0.00000001     0.00000005
 C       -0.04617703    -1.23700303     0.12743730
 C       -0.04617702     1.23700302    -0.12743742
 C       -1.45596412     0.73928617     0.22703211
 C       -1.45596417    -0.73928615    -0.22703203
 H        0.00514355    -1.56646233     1.17416187
 H        0.00514346     1.56646218    -1.17416204
 H        0.33041795    -2.06006437    -0.48455680
 H        0.33041801     2.06006444     0.48455655
 H       -1.60878929     0.79257283     1.31164995
 H       -1.60878952    -0.79257282    -1.31164984
 H       -2.25115976     1.32435260    -0.24161216
 H       -2.25115975    -1.32435255     0.24161237
