11
1,1,1,3,3,3-Hexafluoropropane
 F       -1.37161311    -1.08074565    -0.68103436
 C       -1.27944476    -0.00000001     0.10057824
 C       -0.00000000     0.00000005     0.92461273
 C        1.27944476     0.00000001     0.10057823
 F        1.37161300     1.08074545    -0.68103465
 F        2.33833678     0.00000056     0.92377150
 F        1.37161347    -1.08074602    -0.68103378
 F       -1.37161335     1.08074583    -0.68103408
 F       -2.33833678    -0.00000020     0.92377149
 H       -0.00000002     0.88766109     1.56010964
 H        0.00000002    -0.88766091     1.56010976
