11
1,1,1,3,3-Pentafluoropropane
 F        2.12439538    -0.70069929    -0.63005243
 F        1.26854660    -0.20211634     1.29625401
 F        1.17322049     1.21738277    -0.33250873
 F       -2.52847616    -0.80152808    -0.08921236
 F       -1.59809358     1.18247542    -0.07701661
 C       -0.22136507    -0.69691318    -0.46635143
 C        1.09655000    -0.08273911    -0.03308159
 C       -1.41674633    -0.11346692     0.27190552
 H       -0.17423053    -1.77067243    -0.27032836
 H       -0.35314824    -0.53907569    -1.53957727
 H       -1.31104817    -0.16709016     1.36219545
