12
1,2,3-Trichlorobenzene
 C        0.00000000     2.56569543     0.00000000
 C        1.20578628     1.87430982     0.00000000
 C        1.20497164     0.48178164     0.00000000
 C        0.00000000    -0.23679627     0.00000000
 C       -1.20497163     0.48178164     0.00000000
 C       -1.20578627     1.87430982     0.00000000
Cl       -2.73334782    -0.34711018    -0.00000000
Cl       -0.00000001    -1.96550221     0.00000000
Cl        2.73334782    -0.34711019    -0.00000000
 H        0.00000000     3.65001914     0.00000000
 H        2.15303965     2.39914282     0.00000000
 H       -2.15303965     2.39914281     0.00000000
