12
1,2,4,5-Tetrafluorobenzene
 C        0.00000000     1.39855127    -0.00000000
 C        1.19737213     0.69650417    -0.00000000
 C        1.19737212    -0.69650417    -0.00000000
 C        0.00000000    -1.39855127    -0.00000000
 C       -1.19737213    -0.69650417    -0.00000000
 C       -1.19737213     0.69650417    -0.00000000
 F       -2.35753956     1.34872527     0.00000000
 F       -2.35753956    -1.34872527     0.00000000
 F        2.35753955    -1.34872527     0.00000000
 F        2.35753956     1.34872527     0.00000000
 H        0.00000000     2.48139794    -0.00000000
 H        0.00000000    -2.48139794    -0.00000000
