11
1,1,2,2,3-Pentafluoropropane
 C       -1.09930380    -0.14916191     0.30746928
 C        0.37246135    -0.52874508     0.08897563
 C        1.13331166     0.33264732    -0.91164000
 F        0.38915815    -1.80681614    -0.37231312
 F        0.98579236    -0.50487093     1.29309654
 F       -1.71826094    -0.12953844    -0.89597089
 F       -1.18355999     1.07440707     0.85862465
 F        1.20838222     1.62005295    -0.45521847
 H       -1.59202015    -0.88365025     0.95737171
 H        2.14090595    -0.08525295    -1.01998938
 H        0.61513549     0.30615796    -1.87533761
