12
1,3,5-Trichlorobenzene
Cl        2.70416544    -1.56195617     0.00000000
Cl        0.00063061     3.12284296     0.00000000
Cl       -2.70479604    -1.56086394     0.00000000
 C        1.19289685    -0.68905511    -0.00000000
 C        0.00027818     1.37758840    -0.00000000
 C       -1.19317504    -0.68857328    -0.00000000
 C        1.21758578     0.70264493    -0.00000000
 C       -0.00028388    -1.40580938    -0.00000000
 C       -1.21730191     0.70313661    -0.00000000
 H        2.15431200     1.24323998    -0.00000000
 H       -0.00050228    -2.48733544     0.00000000
 H       -2.15380974     1.24410993     0.00000000
