12
1,3-Dibromobenzene
 C       -1.21215415    -1.80276733    -0.00000000
 C       -0.00000000    -2.48937315    -0.00000000
 C        1.21215414    -1.80276733     0.00000000
 C        1.19341627    -0.41136384     0.00000000
 C       -0.00000000     0.30553867     0.00000000
 C       -1.19341627    -0.41136384     0.00000000
 H        0.00000000    -3.57443120    -0.00000000
 H        2.15407202    -2.33694272     0.00000000
Br        2.84185053     0.54651374    -0.00000000
 H       -0.00000001     1.38728576     0.00000000
Br       -2.84185053     0.54651374    -0.00000000
 H       -2.15407202    -2.33694273    -0.00000000
