12
1,3-Dichloro-2-propanol
Cl        2.76303677    -0.00046108    -0.22879374
 C        1.24284250    -0.75604276     0.36661194
 C        0.00000000     0.01770384    -0.09528611
 C       -1.24284249    -0.75604283     0.36661186
Cl       -2.76303676    -0.00046108    -0.22879372
 O       -0.00000004     1.35481070     0.33229245
 H        1.23226046    -1.78136889    -0.00747552
 H        1.31017592    -0.77878136     1.45797822
 H        0.00000003     0.06352363    -1.18898359
 H       -1.23226044    -1.78136891    -0.00747572
 H       -1.31017591    -0.77878156     1.45797814
 H       -0.00000008     1.38031651     1.29549674
