11
1,3-Dioxolane
 O        1.14611320     0.26462023    -0.22069625
 C        0.67882064    -1.02595063     0.13901978
 C       -0.85580981    -0.91373272    -0.02576873
 O       -1.09836233     0.48876084    -0.09356732
 C        0.12365800     1.13274939     0.18767858
 H        0.94910644    -1.26387572     1.17899917
 H        1.14193459    -1.75954211    -0.52450439
 H       -1.21469048    -1.37441776    -0.95260769
 H       -1.39201065    -1.36140696     0.82056306
 H        0.18881586     2.06081994    -0.38844422
 H        0.20400925     1.34975788     1.27045898
