14
1,4-Dichlorobutane
Cl        3.43888336    -0.12536300     0.00000012
 C        1.81617659     0.67736490    -0.00000026
 H        1.79000034     1.31115375     0.88808255
 H        1.79000049     1.31115321    -0.88808346
 C        0.68737863    -0.34515972    -0.00000007
 H        0.78684059    -0.99042157    -0.88008111
 H        0.78684075    -0.99042143     0.88008106
 C       -0.68737863     0.34515966     0.00000002
 H       -0.78684068     0.99042126     0.88008124
 H       -0.78684064     0.99042163    -0.88008094
 C       -1.81617662    -0.67736493    -0.00000022
 H       -1.79000051    -1.31115324    -0.88808342
 H       -1.79000041    -1.31115378     0.88808259
Cl       -3.43888335     0.12536304     0.00000010
