26
1-Bromooctane
Br       -3.63986197     0.18269399     0.00000008
 C        1.82416168     0.25502346    -0.00000001
 C        3.15002563    -0.51450118     0.00000032
 C        0.59200023    -0.65850001    -0.00000019
 C        4.38275402     0.39665864    -0.00000023
 C       -0.73029474     0.12538333     0.00000008
 C        5.70994382    -0.37068951     0.00000056
 C       -1.92958344    -0.80885668    -0.00000059
 C        6.93628888     0.54708001    -0.00000034
 H        1.78543114     0.91501001     0.87751435
 H        1.78543147     0.91500987    -0.87751449
 H        3.18660457    -1.17527063    -0.87751144
 H        3.18660464    -1.17526973     0.87751275
 H        0.62769272    -1.31765279     0.87826818
 H        0.62769267    -1.31765232    -0.87826891
 H        4.34627084     1.05784808    -0.87733033
 H        4.34627062     1.05784948     0.87732882
 H       -0.77690531     0.77792913    -0.87912058
 H       -0.77690552     0.77792816     0.87912144
 H        5.74600770    -1.03082916    -0.87696356
 H        5.74600766    -1.03082741     0.87696600
 H       -1.96679351    -1.43833769    -0.88927201
 H       -1.96679354    -1.43833893     0.88926995
 H        7.86731258    -0.02866463     0.00000036
 H        6.94562146     1.19516045    -0.88361739
 H        6.94562132     1.19516238     0.88361530
