15
1-Butanol
 C        2.57975966    -0.32239183    -0.00000017
 H        3.47569842     0.30647536     0.00000006
 H        2.62537235    -0.96871389    -0.88353986
 H        2.62537231    -0.96871448     0.88353909
 C        1.30255345     0.52332358     0.00000010
 H        1.30238851     1.18401269     0.87734613
 H        1.30238819     1.18401290    -0.87734576
 C        0.02686076    -0.32495290     0.00000018
 H        0.01053707    -0.98163389    -0.87891915
 H        0.01053708    -0.98163372     0.87891962
 C       -1.24539591     0.51240869    -0.00000001
 H       -1.25833970     1.16811827     0.88699110
 H       -1.25833950     1.16811804    -0.88699129
 O       -2.35608567    -0.37109193     0.00000006
 H       -3.16001203     0.15498516    -0.00000211
