12
1-Chloro-2-propanol
Cl        1.81503457    -0.02144573    -0.07549544
 O       -2.14346406     0.71307082    -0.02125846
 C       -0.95437342    -0.00809217    -0.32376654
 C        0.21463461     0.68439092     0.38799412
 C       -1.17353639    -1.44022431     0.14150536
 H       -2.10093063     1.57036957    -0.45586344
 H       -0.75553166     0.00055836    -1.40600614
 H        0.12193265     0.59296169     1.47131138
 H        0.26125707     1.74151114     0.11831466
 H       -1.40511526    -1.45454021     1.21156298
 H       -2.01626780    -1.88085223    -0.39672509
 H       -0.28282898    -2.04690874    -0.03534536
