17
1-Chloropentane
 C       -2.53189304    -0.56606489     0.00000034
 C       -1.34546129     0.40595540    -0.00000003
 C        0.01310141    -0.31006195     0.00000007
 C        1.16930763     0.67953399     0.00000034
Cl        2.77652627    -0.16158422    -0.00000015
 C       -3.88824492     0.14521509    -0.00000034
 H       -2.46029619    -1.22233835     0.87714229
 H       -2.46029588    -1.22233943    -0.87714078
 H       -1.41488763     1.06288840    -0.87814978
 H       -1.41488754     1.06288892     0.87814936
 H        0.09448388    -0.95918571     0.87935128
 H        0.09448408    -0.95918548    -0.87935129
 H        1.16235668     1.31432145    -0.88791251
 H        1.16235686     1.31432073     0.88791371
 H       -4.71438216    -0.57263906     0.00000014
 H       -4.00100376     0.78295398    -0.88387495
 H       -4.00100393     0.78295538     0.88387323
