12
(1E)-1-chlorobut-1-ene
 C        0.56770997     0.04687178     0.40528151
 C       -0.49206910     0.43551256    -0.29285390
Cl       -2.10538943    -0.16963150    -0.00322983
 C        1.96016882     0.55622269     0.15608753
 H        0.44254401    -0.68930225     1.19662265
 H       -0.46039036     1.15954089    -1.09807746
 C        2.93921415    -0.56779608    -0.22343566
 H        2.32557788     1.05458263     1.06459035
 H        1.94196856     1.31841401    -0.63116487
 H        3.95007911    -0.17249097    -0.36278695
 H        2.63189727    -1.05757606    -1.15241184
 H        2.98291634    -1.33327277     0.55854304
