19
Ethyl(propyl)amine
 N       -0.64170123    -0.31543249    -0.05094344
 C        0.62261268     0.40640785     0.01353089
 C        1.81451655    -0.55104993    -0.02059594
 C       -1.81610541     0.54604128     0.01322175
 C        3.16187902     0.17590779     0.00475095
 C       -3.10259541    -0.27581702    -0.01181459
 H       -0.68096094    -0.98665692     0.71135793
 H        0.67037495     1.07905563    -0.85446254
 H        0.69950161     1.05713896     0.90798318
 H        1.75084009    -1.23375939     0.83839691
 H        1.73502470    -1.17629523    -0.91726495
 H       -1.78835027     1.21402144    -0.85814972
 H       -1.81353448     1.20466847     0.90390823
 H        3.99586368    -0.53232891    -0.01431309
 H        3.26993320     0.83963301    -0.86038944
 H        3.26708705     0.78941250     0.90655261
 H       -3.98245026     0.37465715    -0.00090661
 H       -3.16654041    -0.93371092     0.86315724
 H       -3.14107802    -0.90290086    -0.90724855
