17
1-Fluoropentane
 F       -2.94752252     0.19872203     0.00000030
 C        0.75456138    -0.37650658    -0.00000012
 C       -0.57269031     0.38936712    -0.00000010
 C        1.98225230     0.54201952    -0.00000026
 C       -1.77786628    -0.53738734    -0.00000026
 C        3.30613772    -0.22777476     0.00000033
 H        0.79797824    -1.03679511     0.87768365
 H        0.79797818    -1.03679528    -0.87768377
 H       -0.63261304     1.04136655    -0.88031614
 H       -0.63261312     1.04136626     0.88031615
 H        1.93967456     1.20106574     0.87706283
 H        1.93967490     1.20106504    -0.87706389
 H       -1.77812907    -1.18289436     0.88916769
 H       -1.77812944    -1.18289360    -0.88916877
 H        4.16359626     0.45246689     0.00000015
 H        3.39061946    -0.87012012     0.88378048
 H        3.39061977    -0.87012099    -0.88377915
