11
1-Fluoropropane
 C        1.58363389    -0.55367929     0.12723825
 C        0.73349029     0.65072466    -0.28688689
 C       -0.66899118     0.60545506     0.29909767
 F       -1.32510950    -0.53695770    -0.12744560
 H        2.57151124    -0.52304640    -0.34129686
 H        1.09268638    -1.48454797    -0.16890784
 H        1.72749295    -0.58136401     1.21328855
 H        0.65348515     0.69756801    -1.37966514
 H       -1.25998498     1.47561554    -0.01438121
 H       -0.63541727     0.58579173     1.39740028
 H        1.20565799     1.58755330     0.03562610
