13
1-Nitropropane
 C        2.78484382    -0.14261714     0.02901552
 H        3.53658548     0.42910394    -0.52195510
 H        2.96983816     0.00634501     1.09832374
 H        2.94366581    -1.20319144    -0.19335647
 C        1.37377272     0.30936268    -0.36071660
 H        1.22046727     0.17661910    -1.43785836
 H        1.23479571     1.37188398    -0.14544617
 C        0.31139867    -0.48156156     0.39647060
 H        0.40465073    -0.33528332     1.47713720
 H        0.32630741    -1.54802082     0.17220190
 N       -1.08394219    -0.01421728     0.05568117
 O       -1.90829459    -0.86999315    -0.22137716
 O       -1.29253098     1.18809774     0.09574318
