11
2,2-Dichloropropane
 C       -0.00000001     1.26333430     1.27536914
 C        0.00000000     0.43370905     0.00000000
 C        0.00000000     1.26333427    -1.27536916
 H        0.00000000     0.62138579     2.15713916
 H        0.89067968     1.89780472     1.29763306
 H       -0.89067971     1.89780470     1.29763307
Cl       -1.47186831    -0.63524669     0.00000000
Cl        1.47186831    -0.63524668     0.00000001
 H        0.00000003     0.62138575    -2.15713916
 H       -0.89067971     1.89780467    -1.29763311
 H        0.89067969     1.89780471    -1.29763308
