28
2‐(2‐ethoxyethoxy)ethyl acetate
 C       -4.33581192     0.13266652     0.00204903
 O       -3.14730011    -0.50855414    -0.00244541
 C       -5.47683481    -0.85773729     0.00013580
 O       -4.44402402     1.33145770     0.00632049
 C       -1.98527875     0.33159829    -0.00297039
 C       -0.78095799    -0.59583904    -0.00106375
 O        0.36671434     0.21612816    -0.00421138
 C        1.57164002    -0.51493628     0.00130220
 C        2.71936941     0.48406568    -0.00505607
 O        3.91951943    -0.24835851     0.00312043
 C        6.30005933    -0.33292260     0.00675915
 C        5.07372159     0.56504904    -0.00389919
 H       -5.41990257    -1.49293703    -0.88856431
 H       -6.42387340    -0.31969437     0.01276266
 H       -5.40669883    -1.51319417     0.87290902
 H       -1.98646710     0.97662412     0.88052602
 H       -1.98550824     0.97397148    -0.88847085
 H       -0.80904366    -1.25110119    -0.88714991
 H       -0.80799460    -1.24572763     0.88900346
 H        1.64250207    -1.15654313     0.89421322
 H        1.64326728    -1.16888090    -0.88257297
 H        2.64650345     1.12574170    -0.89860005
 H        2.64333629     1.14049123     0.87746944
 H        7.21353395     0.26935004     0.00171665
 H        6.30707178    -0.98289056    -0.87292758
 H        6.30490205    -0.96481542     0.89953096
 H        5.07351069     1.23130945     0.87576078
 H        5.07558611     1.21300188    -0.89712953
