11
2,3-Dihydrofuran
 C       -0.54392924     1.02976751     0.00751210
 O       -1.18086919    -0.17338549    -0.03471896
 C       -0.15590356    -1.19351986     0.04382316
 C        1.21476610    -0.47034863    -0.03736889
 C        0.78551689     0.98060262     0.02378603
 H       -0.28700579    -1.72371276     0.99353143
 H        1.75071397    -0.70380273    -0.96642765
 H        1.45349315     1.82839299     0.04365394
 H       -1.20968852     1.88329035     0.01568259
 H       -0.32443950    -1.89915270    -0.77409626
 H        1.87391852    -0.75899144     0.78915894
