15
2,4-Dichorotoluene
 C       -0.92700331     0.30272714    -0.00000002
 C       -1.20434818    -1.07045078    -0.00000003
 C       -0.10160813    -1.93088261    -0.00000001
 C        1.20912588    -1.46364884     0.00000002
 C        1.43145135    -0.09133672     0.00000000
 C        0.36984080     0.80689157    -0.00000001
 C       -2.61110091    -1.60585018     0.00000001
 H       -2.60751178    -2.69831687    -0.00000087
 H       -3.16807297    -1.26327604    -0.87848481
 H       -3.16807236    -1.26327749     0.87848580
 H       -0.27846290    -3.00213516    -0.00000001
 H        2.04582285    -2.15140137     0.00000004
Cl        3.06842527     0.52404137     0.00000000
 H        0.54502599     1.87460212    -0.00000002
Cl       -2.24806932     1.45489115     0.00000001
