20
2,4-Dimethylaniline
 C        0.64851558     1.05615480     0.01199158
 C       -0.71618052     0.77496117     0.00555883
 C       -1.13022216    -0.57301048     0.00303363
 C       -0.15973226    -1.58014850     0.00630279
 C        1.19520718    -1.26713478     0.00711093
 C        1.62887362     0.05920468     0.00954459
 N       -2.49263194    -0.89498852    -0.06209849
 H       -0.47503593    -2.62063879     0.00999762
 H        1.92553948    -2.07186443     0.01200793
 C        3.09770356     0.40965519    -0.01439834
 H        0.95783891     2.09938099     0.01799580
 C       -1.74069500     1.88153097    -0.00445347
 H       -3.10765506    -0.23404706     0.38991938
 H       -2.70540474    -1.83946420     0.22554419
 H       -1.26021798     2.86125879    -0.06318356
 H       -2.36096515     1.87907842     0.90363378
 H       -2.42532086     1.78777902    -0.85656024
 H        3.31293977     1.28430214     0.60840653
 H        3.44269216     0.64608697    -1.02931543
 H        3.71050210    -0.42024144     0.35038307
