19
2,4-Pentanediol
 O       -2.38265446     0.74021453     0.47154631
 O        2.38265465     0.74021446    -0.47154615
 C        0.00000004     0.66001075    -0.00000010
 C       -1.28731872    -0.14369186     0.24374349
 C        1.28731881    -0.14369188    -0.24374355
 C       -1.69468621    -1.01749085    -0.93803939
 C        1.69468592    -1.01749107     0.93803931
 H       -2.14660713     1.32549861     1.19758671
 H        2.14660692     1.32549948    -1.19758567
 H       -0.18033214     1.31678249    -0.86307935
 H        0.18033223     1.31678264     0.86307902
 H       -1.14584243    -0.78913358     1.12607397
 H        1.14584266    -0.78913345    -1.12607416
 H       -1.79714056    -0.41093642    -1.84399827
 H       -0.96000672    -1.80540971    -1.12599420
 H       -2.66004509    -1.48784270    -0.73298357
 H        1.79713958    -0.41093688     1.84399845
 H        0.96000645    -1.80541012     1.12599338
 H        2.66004503    -1.48784265     0.73298392
