15
2,4-Pentanedione
 C       -1.93119916    -1.09830674    -0.28437155
 C       -1.22170139     0.17769971     0.11183522
 O       -1.54008001     1.27097453    -0.29053699
 C       -0.00000007    -0.00000140     1.02751094
 C        1.22170145    -0.17769993     0.11183504
 C        1.93119740     1.09830778    -0.28437081
 O        1.54008176    -1.27097405    -0.29053777
 H       -2.42622999    -1.53144368     0.59295681
 H       -2.67146360    -0.89654809    -1.05936439
 H       -1.19710781    -1.83450252    -0.63014668
 H        0.09885959     0.89510123     1.64474789
 H       -0.09885991    -0.89510578     1.64474529
 H        2.67146107     0.89655095    -1.05936486
 H        1.19710497     1.83450344    -0.63014382
 H        2.42622904     1.53144374     0.59295758
