19
2,6-Xylenol
 C       -0.00627716    -0.66390818     0.00000001
 C       -1.22646073     0.02784183     0.00000001
 C       -1.18841013     1.42152565     0.00000002
 C        0.02059064     2.11381409     0.00000001
 C        1.21618098     1.40365965    -0.00000001
 C        1.22520489     0.00707074    -0.00000000
 O       -0.08270219    -2.02974665     0.00000002
 C       -2.52331796    -0.73967599    -0.00000003
 H       -2.12658989     1.96938243     0.00000003
 H        0.02956944     3.19856552     0.00000001
 H        2.16444041     1.93389080    -0.00000003
 C        2.51753065    -0.77429631    -0.00000002
 H        0.80456103    -2.39944772     0.00000015
 H        2.61308217    -1.41847497     0.88522021
 H        3.37794485    -0.10114141    -0.00000051
 H        2.61308171    -1.41847566    -0.88521979
 H       -2.60118596    -1.39186085    -0.87702153
 H       -3.37840868    -0.05889596     0.00000048
 H       -2.60118552    -1.39186166     0.87702090
