17
2-Bromopentane
 C        2.07999468    -1.52481764    -0.55262237
 C        2.48345289    -0.17821470     0.05946912
 C        1.45492630     0.48404485     0.99282622
 C        0.17985862     1.08188004     0.38668740
 C        0.38029826     1.92265514    -0.86515178
Br       -1.20744934    -0.32002242     0.01344093
 H        2.92271266    -1.95984910    -1.10007891
 H        1.78087159    -2.23730087     0.22350220
 H        1.24144099    -1.42908850    -1.24585128
 H        2.76032473     0.52185975    -0.73824094
 H        3.39626643    -0.32223878     0.65081860
 H        1.95393810     1.33215029     1.48573416
 H        1.17586606    -0.20875956     1.79394999
 H       -0.32300904     1.67013553     1.15486446
 H        0.75086924     1.32472647    -1.70090347
 H       -0.55394024     2.39707020    -1.17262019
 H        1.11518156     2.71061129    -0.65619558
