18
2-Chloronaphthalene
 C        3.06035344    -1.17772830     0.00000678
 C        3.41330849     0.19208207     0.00000995
 C        1.73953817    -1.55567810    -0.00000773
 C        2.43661638     1.15841584     0.00001465
 C        1.06373248     0.80345590     0.00000150
 C        0.70696809    -0.58226587    -0.00001716
 C       -0.66486997    -0.94365878    -0.00002760
 C        0.02873769     1.77378065    -0.00000338
 C       -1.29378689     1.40616265    -0.00001192
 C       -1.62781757     0.03302753    -0.00001395
Cl       -3.32204143    -0.41267783     0.00001687
 H        3.84099906    -1.93172722     0.00003503
 H        4.46078459     0.47572044     0.00001884
 H        1.46621037    -2.60676705     0.00004200
 H        2.70255526     2.21157896     0.00003435
 H       -0.94514739    -1.99109098    -0.00005129
 H        0.29720494     2.82617901    -0.00004627
 H       -2.08425351     2.14699780    -0.00003611
