10
(2E)-2-butenenitrile
 C       -2.45932926     0.00628139     0.00002941
 C       -1.01306335     0.38193399    -0.00003149
 C       -0.00050596    -0.49445398    -0.00002199
 C        1.36801426    -0.09852626    -0.00002619
 N        2.48764233     0.20078674     0.00003536
 H       -2.96679817     0.42325627    -0.87843464
 H       -2.96672037     0.42330953     0.87851347
 H       -2.59966676    -1.07774522     0.00007495
 H       -0.78174183     1.44507649    -0.00006311
 H       -0.18669306    -1.56559588     0.00001662
