15
2-Fluorotoluene
 C        0.45246608     0.65302503     0.00000001
 C        0.51196951    -0.74108691    -0.00000002
 C       -0.70645325    -1.42353707    -0.00000003
 C       -1.92316713    -0.74229602     0.00000000
 C       -1.94049494     0.64997799     0.00000002
 C       -0.74032304     1.35914263     0.00000001
 C        1.84431167    -1.44399835     0.00000003
 H        1.71224923    -2.52864451    -0.00000152
 H        2.43914131    -1.17143086    -0.87852613
 H        2.43913997    -1.17143330     0.87852787
 H       -0.69559526    -2.50975388    -0.00000009
 H       -2.85401431    -1.29944338    -0.00000002
 H       -2.88254116     1.18814153     0.00000003
 H       -0.71310818     2.44296363     0.00000000
 F        1.60957581     1.33455510    -0.00000002
