22
2-Heptanone
 C       -4.18441604    -0.24448381    -0.00001790
 C       -2.84490973     0.49824345     0.00006616
 C       -1.63402242    -0.44218361    -0.00003956
 C       -0.29316633     0.29949637     0.00004361
 C        0.91079142    -0.64239666    -0.00005757
 H        0.88527759    -1.31388276     0.87092113
 C        2.25798779     0.07200271    -0.00001805
 C        3.49091120    -0.81868280     0.00006244
 H       -5.02855572     0.45240849     0.00006053
 H       -4.28195655    -0.88545521     0.88357075
 H       -4.28195619    -0.88525590    -0.88375111
 H       -2.78976907     1.15701103    -0.87663137
 H       -2.78976976     1.15681330     0.87691232
 H       -1.68926017    -1.10290718     0.87717572
 H       -1.68925918    -1.10270917    -0.87740399
 H       -0.22997701     0.95974299    -0.87275105
 H       -0.22998375     0.95955177     0.87298462
 O        2.34485234     1.27807694    -0.00004224
 H        4.39214965    -0.20425288    -0.00010657
 H        3.49056877    -1.47236292    -0.87960125
 H        3.49067536    -1.47199696     0.88000018
 H        0.88525831    -1.31370360    -0.87117533
