10
2-Mercaptoethanol
 S       -1.65830929    -0.13309942     0.00000045
 O        2.32952728     0.13252119     0.00000134
 C        0.01861947     0.61701185    -0.00000077
 C        1.05950847    -0.49636154    -0.00000088
 H       -2.34367797     1.02358197    -0.00000395
 H        3.00445963    -0.55154684    -0.00000654
 H        0.14772190     1.23692236    -0.88955499
 H        0.14772299     1.23692307     0.88955282
 H        0.92166051    -1.13161395    -0.88876283
 H        0.92165874    -1.13161602     0.88875941
