22
2-Methyl-1,3-pentanediol
 C        0.94951143    -1.76752844     0.13551202
 C        0.68225162    -0.29778514    -0.22131544
 C        1.77819486     0.59904742     0.36295895
 O        3.01671275     0.22759442    -0.22914854
 C       -0.70764063     0.19429505     0.23291901
 C       -1.87115664    -0.63845275    -0.32389860
 C       -3.24048957    -0.14305534     0.15142443
 O       -0.88838417     1.57908867    -0.07491784
 H        0.32327429    -2.45430771    -0.43950610
 H        0.76204470    -1.95100622     1.20098917
 H        1.99488489    -2.00932340    -0.06835432
 H        0.73554876    -0.19004168    -1.31607639
 H        1.80804282     0.46770710     1.45866224
 H        1.53748640     1.64998939     0.16141321
 H        3.70410608     0.78866024     0.13856293
 H       -0.74782161     0.15971539     1.33138717
 H       -1.73912820    -1.68662343    -0.03627425
 H       -1.82353418    -0.61435307    -1.42327148
 H       -4.04905937    -0.72679000    -0.29909882
 H       -3.38524241     0.90861218    -0.10765620
 H       -3.33181026    -0.23015974     1.23995411
 H       -0.87940936     1.66500334    -1.03473226
