15
2-Methyl-1-propanol
 C        0.61838189     1.46673469     0.12733918
 C        0.50965718     0.00777677    -0.33099854
 C        1.77069283    -0.79492964     0.01286326
 C       -0.73204400    -0.66945005     0.26619665
 O       -1.94831291    -0.01224288    -0.05363467
 H        1.44035296     1.98296617    -0.37924791
 H        0.80558329     1.51969659     1.20687961
 H       -0.31053366     2.00557078    -0.07591301
 H        0.38844242    -0.00168047    -1.42623451
 H        2.66039035    -0.34346107    -0.43742024
 H        1.70206898    -1.82843566    -0.34416157
 H        1.92991434    -0.82645052     1.09742841
 H       -0.76140916    -1.72759489    -0.04145427
 H       -0.67010188    -0.65370812     1.36155000
 H       -2.06198374    -0.05323703    -1.00798675
