16
2-Methyl-2-nitropropane
 O       -1.44464528     1.06724564    -0.00000004
 O       -1.46123044    -1.09760104    -0.00000002
 N       -0.88950100    -0.02054968    -0.00000004
 C        0.65932275    -0.00660929     0.00000000
 C        1.07743179     0.74958610     1.26712020
 C        1.16809300    -1.44480204    -0.00000031
 C        1.07743193     0.74958667    -1.26711980
 H        0.75112704     0.22000073     2.16728096
 H        0.65091386     1.75389763     1.27591338
 H        2.16802758     0.82773634     1.29478295
 H        0.82925426    -1.98854612    -0.88391834
 H        2.26235814    -1.42758079    -0.00000032
 H        0.82925427    -1.98854651     0.88391748
 H        0.75112736     0.22000169    -2.16728085
 H        2.16802772     0.82773700    -1.29478235
 H        0.65091395     1.75389819    -1.27591263
