17
2-Methylaniline
 C       -0.65770364    -1.40248563     0.00388932
 C        0.54615677    -0.69887644     0.00480034
 C        0.50415040     0.71140780     0.00608361
 C       -0.73558885     1.36340094     0.00383155
 C       -1.92186646     0.63822503    -0.00225672
 C       -1.89096003    -0.75372749     0.00031308
 N        1.69074191     1.45074437    -0.05271223
 H       -0.76104205     2.45021503     0.00422062
 H       -2.87066898     1.16587566    -0.00426643
 H       -2.81126763    -1.32763748    -0.00244214
 H       -0.62211697    -2.48885691     0.00393172
 C        1.87204197    -1.41689115    -0.00575299
 H        2.48985237     1.01597800     0.38434836
 H        1.59497227     2.41324888     0.23684703
 H        1.73159106    -2.49906248    -0.06343083
 H        2.45917065    -1.21491657     0.90193922
 H        2.49019364    -1.10986697    -0.85863056
