18
2-Pentanethiol
 C       -1.63330968     1.66953222    -0.09597911
 C       -0.72347001     0.53452391     0.37512637
 C        0.69481710     0.66586578    -0.19873598
 C        1.72471572    -0.32206888     0.36234174
 C        3.13198517    -0.07807524    -0.19147782
 S       -1.40243870    -1.11969596    -0.11153559
 H       -1.72360718     1.67014862    -1.18643629
 H       -1.22163437     2.63666751     0.21772399
 H       -2.63879976     1.58088656     0.32625523
 H       -0.66302631     0.54183455     1.46867775
 H        1.03399392     1.69012627     0.00983649
 H        0.64847918     0.57610616    -1.29249961
 H        1.41562798    -1.34920358     0.13763690
 H        1.74018108    -0.24242867     1.45738126
 H        3.48552321     0.93081513     0.05024148
 H        3.15166056    -0.18201889    -1.28211203
 H        3.85112369    -0.79121128     0.22317603
 H       -2.62802832    -0.94792929     0.41656128
