16
2-Pentanone
 C       -2.81940450    -0.27879866    -0.00000475
 H       -3.63084262     0.45557867     0.00003284
 H       -2.94727660    -0.91468488     0.88360380
 H       -2.94727790    -0.91459595    -0.88367709
 C       -1.45163455     0.40941940     0.00002837
 H       -1.35794257     1.06500725    -0.87235386
 H       -1.35794285     1.06492061     0.87247623
 C       -0.29070615    -0.58536986    -0.00002192
 H       -0.34711465    -1.25502683     0.87101568
 H       -0.34712524    -1.25494473    -0.87112256
 C        1.08683675     0.06826842    -0.00000711
 C        2.27908508    -0.87602048     0.00001457
 H        2.24985050    -1.52890954    -0.87974996
 H        2.24990121    -1.52878404     0.87987472
 H        3.20662339    -0.30206871    -0.00004812
 O        1.22663847     1.26937638    -0.00001013
