19
2-Phenylethanol
 C       -0.07435793    -0.00001283     0.36840010
 C       -0.77078976     1.20110779     0.19628381
 C       -2.12250338     1.20402048    -0.14029033
 C       -2.80318193     0.00001435    -0.31054253
 C       -2.12252301    -1.20400516    -0.14030784
 C       -0.77080904    -1.20111938     0.19626591
 C        1.40018244    -0.00002644     0.69643614
 C        2.26915451     0.00001573    -0.56434763
 O        3.62616068     0.00000219    -0.15502142
 H       -0.24737709     2.14358649     0.33391302
 H       -2.64543191     2.14730222    -0.26470996
 H       -3.85733294     0.00002484    -0.56880176
 H       -2.64546687    -2.14727661    -0.26474106
 H       -0.24741129    -2.14360844     0.33388058
 H        1.66330367    -0.88103888     1.29173442
 H        1.66330704     0.88094483     1.29179417
 H        2.03011920     0.88683176    -1.17321053
 H        2.03011954    -0.88675926    -1.17327043
 H        4.17893916     0.00002331    -0.94092442
