22
2-(Propan-2-yl)phenol
 O       -0.05652483     2.15476969    -0.33623044
 C        1.72333448     0.02048085    -0.21571111
 C        0.22034154    -0.18634828    -0.09821964
 C        2.30607259     0.54247478     1.11452041
 C        2.48479111    -1.22492240    -0.68878789
 C       -0.63639951     0.92833066    -0.15824904
 C       -0.37238996    -1.43641136     0.08576835
 C       -2.01839237     0.78593655    -0.04252687
 C       -1.75361587    -1.59224305     0.20849974
 C       -2.57877519    -0.47549983     0.14258825
 H        1.87550320     0.80822794    -0.96310197
 H        1.81258536     1.46785226     1.42119389
 H        3.37832421     0.74395214     1.01383946
 H        2.17367091    -0.19781630     1.91150308
 H        3.53442728    -0.97319985    -0.87160631
 H        2.06640137    -1.62767135    -1.61653617
 H        2.47160306    -2.02215976     0.06269665
 H        0.25962467    -2.31666387     0.13057106
 H       -2.65363702     1.66743682    -0.09782464
 H       -2.17707285    -2.58085285     0.35025099
 H       -3.65549158    -0.57758343     0.23217724
 H       -0.74672680     2.82336342    -0.37912359
