16
(2R,3S)-2,3-butanediol
 C        0.97010379    -1.31047160    -0.70256294
 C        0.67847772    -0.34358576     0.44315962
 C       -0.71384221     0.30860856     0.37030925
 C       -1.86681593    -0.68462221     0.38851408
 O       -0.82119553     1.08751938    -0.80982123
 O        1.57851443     0.77023570     0.41874335
 H        2.01736883    -1.63464927    -0.67581657
 H        0.77387978    -0.82670489    -1.66289414
 H        0.35131758    -2.20959471    -0.63112658
 H        0.76629445    -0.87103177     1.40690088
 H       -0.79130023     0.96069804     1.25676106
 H       -1.81821556    -1.32423524     1.27567506
 H       -1.85351346    -1.31675228    -0.50379701
 H       -2.81835058    -0.14676637     0.40374852
 H       -0.01202373     1.61259176    -0.84287182
 H        2.46342707     0.44426592     0.23359867
