19
(2S,5R)-2,5-dimethyltetrahydrofuran
 O        0.00000337    -0.88902792    -0.07871579
 C        0.77441525     1.32752788     0.10653554
 C       -0.77442734     1.32753394     0.10649273
 C        1.14169956    -0.09660448    -0.37541742
 C       -1.14170033    -0.09661705    -0.37542422
 C        2.36317417    -0.71457866     0.28337217
 C       -2.36316495    -0.71458588     0.28338941
 H        1.20130275     2.09592678    -0.54360481
 H        1.16558766     1.49673611     1.11445927
 H       -1.20126924     2.09590642    -0.54370879
 H       -1.16565667     1.49679581     1.11438515
 H        1.28771805    -0.07618241    -1.47063339
 H       -1.28772812    -0.07622195    -1.47063904
 H        2.52574602    -1.73340571    -0.07972508
 H        3.25764336    -0.12345077     0.06263734
 H        2.22961442    -0.75280923     1.36921888
 H       -2.52572868    -1.73342434    -0.07967954
 H       -3.25764141    -0.12347287     0.06264410
 H       -2.22959834    -0.75278588     1.36923638
