10
(2Z)-2-butenenitrile
 C       -1.14025594    -0.11498499     0.00006356
 C       -0.00103328    -0.97234912     0.00000192
 C        1.26209423    -0.52356034    -0.00002396
 C        1.69156183     0.90742859     0.00000831
 N       -2.07898058     0.56510314    -0.00003899
 H       -0.21288546    -2.03707996    -0.00002568
 H        2.05450834    -1.26918667    -0.00007346
 H        0.83960785     1.59070277     0.00006238
 H        2.31260165     1.11996461    -0.87870356
 H        2.31266627     1.11990556     0.87868872
