12
3,4-Dichlorobut-1-ene
Cl        0.44344297    -1.64696198    -0.00448836
Cl       -2.22168986     0.46367445    -0.15691807
 C        0.54008775     0.16778502    -0.17275836
 C       -0.61690392     0.82435134     0.57352819
 C        1.85838849     0.63827307     0.36170243
 C        2.75819936     1.28672485    -0.37161932
 H        0.45736123     0.36539329    -1.24217088
 H       -0.49365569     1.90845638     0.53527535
 H       -0.65301383     0.49684044     1.61307502
 H        2.04396582     0.42741828     1.41269966
 H        2.59606368     1.49502500    -1.42536093
 H        3.69539829     1.62994964     0.05303246
