20
3,5-Dimethylaniline
 C        2.51604632    -1.47762593    -0.00933901
 C        1.21084834    -0.71672998     0.01217737
 C       -0.00936850    -1.39701307    -0.00178393
 C       -1.22069706    -0.70014614    -0.01183665
 C       -2.53550069    -1.44439286     0.01083807
 C       -1.20134601     0.69367478    -0.01218608
 C        0.00943162     1.39820808     0.00375679
 N        0.01922176     2.79504222    -0.05510081
 C        1.21031161     0.67761187     0.02006883
 H        2.40643697    -2.47015388     0.43733126
 H        3.30095571    -0.94372896     0.53525881
 H        2.87461946    -1.62066630    -1.03644891
 H       -0.01668071    -2.48368625    -0.00358278
 H       -2.44808105    -2.42188504    -0.47256157
 H       -3.32368228    -0.88181885    -0.49869029
 H       -2.87492226    -1.62030608     1.03944219
 H       -2.13799518     1.24632558    -0.02566640
 H       -0.81398272     3.23777388     0.30397154
 H        0.85309413     3.22614939     0.31634751
 H        2.15456760     1.21730369     0.03093029
