14
3-Aminopropanol
 O       -2.36725408     0.36634903     0.00184296
 N        2.47121942     0.34438618     0.05991970
 C        0.01285044     0.32555421     0.02514881
 C        1.28749004    -0.51682386    -0.02436618
 C       -1.25596811    -0.51597462    -0.00916291
 H       -3.17049807    -0.16074902    -0.00682360
 H        3.31396170    -0.22155988     0.04072129
 H        2.51599441     0.94239803    -0.76053661
 H        0.01815426     0.94021269     0.93127152
 H       -0.00940365     1.01765146    -0.82699468
 H        1.26524916    -1.15645527    -0.92559485
 H        1.31015424    -1.19695191     0.83713173
 H       -1.27677500    -1.19328099     0.86112034
 H       -1.26113359    -1.14946220    -0.91230301
