17
3-Bromopentane
Br        0.00000004    -1.09241442    -0.03366897
 C       -0.00000003     0.89594749     0.23043453
 C       -1.27646045     1.48966806    -0.36024538
 C        1.27646035     1.48966816    -0.36024535
 C       -2.57542748     1.05181041     0.31931814
 C        2.57542742     1.05181053     0.31931812
 H       -0.00000004     0.99036184     1.31947191
 H       -1.17517401     2.58112220    -0.27316486
 H       -1.31223276     1.26768732    -1.43303058
 H        1.17517386     2.58112229    -0.27316475
 H        1.31223267     1.26768749    -1.43303057
 H       -3.43181867     1.57078740    -0.12154571
 H       -2.55850475     1.28486146     1.38983453
 H       -2.73736678    -0.02349051     0.21184424
 H        3.43181856     1.57078766    -0.12154564
 H        2.55850465     1.28486143     1.38983454
 H        2.73736681    -0.02349036     0.21184408
