13
3-Chloro-1,2-propanediol
Cl       -2.28397935     0.00023935    -0.17815978
 O        0.55885362     1.31191402     0.32673426
 O        2.82796203     0.00535693    -0.35938347
 C        0.47878566    -0.00186111    -0.17622089
 C        1.75968371    -0.77007147     0.16930692
 C       -0.73192879    -0.68333113     0.43824687
 H        1.43791849     1.62863795     0.08567507
 H        3.65116570    -0.28058476     0.04396046
 H        0.37183623     0.00104636    -1.27303574
 H        1.84392601    -0.86901140     1.26179354
 H        1.73785711    -1.77675171    -0.27465700
 H       -0.74686809    -1.74811280     0.20039084
 H       -0.73718673    -0.54197489     1.51989548
