12
3-Chloropropanol
Cl       -2.19016895    -0.20144901    -0.00000001
 O        2.93193987    -0.46430149     0.00000001
 C        0.56869004    -0.25616950     0.00000001
 C        1.89578840     0.50084354    -0.00000001
 C       -0.61789578     0.69619012     0.00000002
 H        0.52867564    -0.90420470     0.88095342
 H        0.52867562    -0.90420471    -0.88095338
 H        1.95459216     1.15294781    -0.88749457
 H        1.95459218     1.15294786     0.88749450
 H       -0.63399489     1.33125014    -0.88776583
 H       -0.63399490     1.33125011     0.88776588
 H        3.77551540    -0.00416574    -0.00000008
