15
3-Chlorotoluene
 C        2.72071646    -1.47141656     0.00994756
 C        1.60223363    -0.45711965    -0.00972465
 C        1.87547079     0.91466104    -0.00743557
 C        0.84258945     1.84778525     0.00223007
 C       -0.48776640     1.43441457     0.00720894
 C       -0.75459084     0.06953371     0.00127403
 C        0.26790514    -0.87376754    -0.00849449
Cl       -2.42039139    -0.47851087     0.00038497
 H        3.59483532    -1.11017873    -0.53969645
 H        3.04567006    -1.67998999     1.03668058
 H        2.40780944    -2.42132183    -0.43226114
 H        2.90732457     1.25313151    -0.01507191
 H        1.07089585     2.90887576     0.00188611
 H       -1.30103364     2.14980396     0.01123417
 H        0.02211900    -1.92993970    -0.01666512
