11
Acetol
 C       -0.65209544     1.43866129    -0.05018292
 C       -0.61208965    -0.07560095    -0.01338063
 O       -1.60136430    -0.76066966     0.09377243
 C        0.76442943    -0.74156179    -0.15576966
 O        1.87240856     0.10809644     0.06263821
 H       -1.68865878     1.77740744    -0.05505511
 H       -0.13337524     1.85283626     0.82163379
 H       -0.11750252     1.81528587    -0.92817829
 H        0.77511629    -1.63951548     0.47663756
 H        0.83882536    -1.08668783    -1.19537112
 H        1.97442405     0.23738996     1.00954586
