18
1-Chloro-3,4-dimethylbenzene
 C       -0.22873748     0.98741021    -0.00001890
 C        1.15199081     0.78246117     0.00007578
 C       -1.10133666    -0.09617669     0.00001928
 C        1.65591784    -0.53368189     0.00009571
 C        2.08514919     1.96870944     0.00013181
 C        0.75466214    -1.59951278     0.00018419
 C        3.14226912    -0.79362347    -0.00033345
 C       -0.62385817    -1.39935782     0.00016853
Cl       -2.83069463     0.19413939    -0.00009473
 H       -0.62880618     1.99529660    -0.00015447
 H        1.52884953     2.90908453    -0.00152985
 H        2.74140914     1.96489719    -0.87827197
 H        2.73901463     1.96672124     0.88035138
 H        1.13788479    -2.61596698     0.00024089
 H        3.63100453    -0.35637243     0.87867057
 H        3.63037302    -0.35621370    -0.87962541
 H        3.35372545    -1.86578163    -0.00048370
 H       -1.31171482    -2.23623879     0.00024420
