13
4-Chlorophenol
 C       -1.18098959    -1.20957350    -0.00000000
 C        0.21158936    -1.21120141    -0.00000000
 C        0.89716241    -0.00171788    -0.00000000
 C        0.20610811     1.20800702    -0.00000000
 C       -1.18329483     1.20676918    -0.00000000
 C       -1.88338644    -0.00252841    -0.00000000
 O       -3.24275647     0.05896835     0.00000000
Cl        2.64968085     0.00113462     0.00000000
 H       -1.72041188    -2.15333361    -0.00000000
 H        0.75924141    -2.14607622    -0.00000000
 H        0.75349854     2.14314037    -0.00000000
 H       -1.74110389     2.13633480    -0.00000000
 H       -3.60271848    -0.83331415     0.00000001
