17
4-Methylaniline
 C       -0.70072070    -1.19360828     0.00995897
 C        0.68947199    -1.20171330     0.00526952
 C        1.41026825     0.00000018     0.00048751
 C        0.68947292     1.20171345     0.00526962
 C       -0.70072047     1.19360886     0.00995892
 C       -1.42846375     0.00000080     0.00904691
 N        2.80798060    -0.00000076    -0.06366939
 H        1.22610236     2.14689459     0.00712312
 H       -1.23210556     2.14187735     0.01891948
 C       -2.93829712    -0.00000046    -0.01515782
 H       -1.23210609    -2.14187668     0.01891971
 H        1.22610132    -2.14689453     0.00712284
 H        3.24432748    -0.83253281     0.30524336
 H        3.24432850     0.83253137     0.30524196
 H       -3.34645399    -0.88456980     0.48390073
 H       -3.32846966    -0.00007848    -1.04128646
 H       -3.34645137     0.88464484     0.48376720
