15
1‐Chloro‐2‐(2‐chloroethoxy)ethane
 C        1.17912354    -0.31812738     0.00000026
 C        2.34457179     0.65965073    -0.00000012
 H        2.33013268     1.28847936    -0.89027337
 H        2.33013291     1.28847982     0.89027281
Cl        3.90579603    -0.24026411    -0.00000009
 H        1.22828360    -0.96575962     0.88886626
 O       -0.00000000     0.45676857     0.00000015
 H        1.22828345    -0.96576009    -0.88886541
 C       -1.17912354    -0.31812738     0.00000015
 C       -2.34457179     0.65965073     0.00000006
 H       -1.22828349    -0.96575989    -0.88886567
 H       -1.22828356    -0.96575982     0.88886601
Cl       -3.90579603    -0.24026411    -0.00000012
 H       -2.33013289     1.28847956     0.89027317
 H       -2.33013270     1.28847961    -0.89027301
