16
Butane-1,2-diol
 C       -1.24761656    -0.68390107     0.26658169
 C        0.02266701     0.01774794    -0.20951005
 C        1.28186797    -0.73333394     0.24874393
 C        2.57305108    -0.08655499    -0.25919041
 O        0.04915025     1.38277600     0.18279687
 O       -2.36876404    -0.03329520    -0.29670582
 H       -1.27695767    -0.65751220     1.37210277
 H       -1.20141612    -1.74468317    -0.02950230
 H       -0.00397607     0.04829153    -1.30640191
 H        1.22284425    -1.77506619    -0.09177032
 H        1.29102196    -0.76862044     1.34830548
 H        2.61846450     0.96257595     0.04358365
 H        2.62334951    -0.11857421    -1.35319372
 H        3.45572522    -0.60121419     0.13228211
 H       -0.06789438     1.41934524     1.13815374
 H       -3.16184112    -0.48770908    -0.00090628
