19
1-(Ethenyl)oxybutane
 C        3.06101570    -0.84291924     0.00000011
 C        2.56262617     0.39453441    -0.00000011
 O        1.26988747     0.78348116    -0.00000010
 C        0.28186454    -0.23828792     0.00000008
 C       -1.08862891     0.42308285     0.00000020
 C       -2.23108065    -0.59873990    -0.00000028
 C       -3.61475971     0.05819895     0.00000009
 H       -1.16621665     1.07417051     0.87934523
 H       -1.16621647     1.07417110    -0.87934441
 H        0.41205741    -0.87604940    -0.88709343
 H        0.41205761    -0.87604931     0.88709363
 H        3.20789918     1.26908544    -0.00000033
 H        4.13530334    -0.97446089     0.00000006
 H        2.45092428    -1.73632681     0.00000033
 H       -2.13645187    -1.25220096    -0.87739914
 H       -2.13645184    -1.25220189     0.87739788
 H       -4.41160439    -0.69199158    -0.00000042
 H       -3.75180353     0.69105197     0.88374266
 H       -3.75180346     0.69105312    -0.88374166
