15
Chloromethylbenzene
 C       -2.71484354    -0.00000004    -0.39244792
 C       -2.04979598    -1.20621770    -0.17800718
 C       -0.72496873    -1.20514601     0.24891002
 C       -0.05013420     0.00000004     0.46582335
 C       -0.72496878     1.20514605     0.24890996
 C       -2.04979604     1.20621765    -0.17800725
 C        1.37256913     0.00000007     0.93356208
Cl        2.55678614    -0.00000002    -0.46478500
 H        1.61629228     0.89024769     1.51264500
 H        1.61629228    -0.89024747     1.51264512
 H       -0.20666895     2.14531033     0.41397785
 H       -2.56396005     2.14802889    -0.34063024
 H       -3.74851238    -0.00000007    -0.72308017
 H       -2.56395995    -2.14802896    -0.34063014
 H       -0.20666885    -2.14531026     0.41397793
