20
Cyclohexylamine
 C        0.29813841     1.25990137    -0.17656305
 H        0.40346016     1.29669342    -1.26880867
 H        0.79859685     2.15425713     0.21741355
 C       -1.18730293     1.26721787     0.21188171
 H       -1.27891598     1.32868586     1.30544070
 H       -1.67630085     2.16185949    -0.19017480
 C       -1.89960203    -0.00000000    -0.28370050
 H       -2.94638576    -0.00000000     0.04156855
 H       -1.91264873    -0.00000001    -1.38251966
 C       -1.18730293    -1.26721787     0.21188172
 H       -1.27891596    -1.32868585     1.30544071
 H       -1.67630085    -2.16185949    -0.19017479
 C        0.29813842    -1.25990137    -0.17656305
 H        0.79859686    -2.15425712     0.21741355
 H        0.40346017    -1.29669343    -1.26880868
 C        1.01342695     0.00000000     0.32954466
 H        0.94555657    -0.00000000     1.43493180
 N        2.40121649     0.00000001    -0.14709486
 H        2.89113314     0.81245744     0.21756814
 H        2.89113310    -0.81245749     0.21756806
