27
1-Butoxybutane
 C        4.92784511    -0.53778145    -0.00000055
 H        5.86831919     0.02228348     0.00000040
 H        4.92497823    -1.18560358    -0.88361902
 H        4.92497805    -1.18560626     0.88361596
 C        3.71781742     0.40151071     0.00000076
 H        3.76704342     1.06035978     0.87726140
 H        3.76704351     1.06036233    -0.87725795
 C        2.38154819    -0.34845519    -0.00000038
 H        2.31644225    -1.00176606    -0.87898131
 H        2.31644192    -1.00176813     0.87897898
 C        1.17903247     0.58664930     0.00000050
 H        1.20617980     1.24571805     0.88649732
 H        1.20617965     1.24571945    -0.88649528
 O       -0.00000000    -0.18566069     0.00000002
 C       -1.17903247     0.58664931    -0.00000030
 H       -1.20617964     1.24571930     0.88649559
 H       -1.20617983     1.24571821    -0.88649701
 C       -2.38154819    -0.34845520     0.00000044
 H       -2.31644174    -1.00176819    -0.87897887
 H       -2.31644240    -1.00176601     0.87898142
 C       -3.71781741     0.40151070    -0.00000102
 H       -3.76704356     1.06036261     0.87725747
 H       -3.76704334     1.06035948    -0.87726187
 C       -4.92784512    -0.53778144     0.00000052
 H       -5.86831918     0.02228352    -0.00000085
 H       -4.92497840    -1.18560315     0.88361930
 H       -4.92497792    -1.18560667    -0.88361568
