17
2‐(2‐Hydroxyethoxy)ethan‐1‐ol
 O        3.53374335     0.27160309     0.00000212
 H        4.29502653    -0.31349810    -0.00000579
 C        2.36160094    -0.52378744    -0.00000222
 H        2.30049041    -1.17068862    -0.88843559
 H        2.30048839    -1.17069520     0.88842626
 C        1.17687078     0.43074196     0.00000012
 H        1.22739690     1.08148217     0.88810650
 H        1.22739611     1.08148578    -0.88810364
 O       -0.00000000    -0.34160313    -0.00000089
 C       -1.17687078     0.43074197     0.00000051
 H       -1.22739518     1.08148427     0.88810542
 H       -1.22739782     1.08148369    -0.88810472
 C       -2.36160094    -0.52378743     0.00000245
 H       -2.30048793    -1.17069554    -0.88842579
 H       -2.30049085    -1.17068827     0.88843605
 O       -3.53374335     0.27160308    -0.00000292
 H       -4.29502651    -0.31349813     0.00001804
