20
Diethyl oxalate
 C       -4.10368493     0.51896842     0.00007673
 C       -2.96511944    -0.48247402     0.00000114
 O       -1.72938888     0.26372490     0.00000078
 C       -0.61579054    -0.46555383    -0.00002799
 C        0.61579054     0.46555373    -0.00002798
 O        1.72938892    -0.26372492     0.00000099
 C        2.96511942     0.48247408     0.00000141
 C        4.10368498    -0.51896829     0.00007647
 O       -0.55804702    -1.66605948    -0.00005284
 O        0.55804695     1.66605939    -0.00005297
 H       -2.98216511    -1.12969710    -0.88281583
 H       -2.98211742    -1.12977740     0.88275991
 H       -5.06090520    -0.01090071     0.00007653
 H       -4.06089147     1.15733985     0.88668426
 H       -4.06093682     1.15742281    -0.88647322
 H        2.98216493     1.12969749    -0.88281532
 H        2.98211752     1.12977713     0.88276042
 H        5.06090522     0.01090090     0.00007634
 H        4.06089167    -1.15734007     0.88668375
 H        4.06093678    -1.15742232    -0.88647372
