12
Dimethyl carbonate
 C        2.32744033     0.00328219    -0.00000040
 H        3.09686291     0.77559185     0.00001426
 H        2.41829114    -0.62589666    -0.88930092
 H        2.41828032    -0.62592066     0.88928407
 O        1.08020145     0.70389975     0.00000118
 C        0.00000000    -0.08420650    -0.00000005
 O        0.00000001    -1.28953600    -0.00000006
 O       -1.08020146     0.70389975    -0.00000129
 C       -2.32744033     0.00328219     0.00000060
 H       -3.09686292     0.77559185    -0.00001518
 H       -2.41829148    -0.62589564     0.88930182
 H       -2.41827999    -0.62592168    -0.88928317
