17
Dimethylethanolamine
 C        2.08605675     0.99411326    -0.02077895
 N        1.04416275     0.01471153    -0.28562986
 C        1.44879057    -1.30816857     0.16696809
 C       -0.24173312     0.43073166     0.26068883
 C       -1.42855619    -0.33022832    -0.34266116
 O       -2.66616289     0.14684917     0.15753065
 H        3.01743645     0.68196658    -0.50467565
 H        1.79888263     1.96629266    -0.43395224
 H        2.29569770     1.13029158     1.05830996
 H        2.39807880    -1.58115414    -0.30459956
 H        1.58507421    -1.36543712     1.26488973
 H        0.70922556    -2.05989957    -0.12034897
 H       -0.28380211     0.34471773     1.36428363
 H       -0.37411460     1.49519546     0.02488518
 H       -1.37235200    -0.27179258    -1.44014772
 H       -1.39607353    -1.38921674    -0.06946244
 H       -2.77308466     1.05675361    -0.13528880
