33
1‐(Pentyloxy)pentane
 C       -4.93460124    -0.58130986    -0.00000201
 C       -3.71734238     0.35093974     0.00000126
 C       -2.38148786    -0.39919062    -0.00000131
 C       -1.17917635     0.53638076     0.00000022
 O        0.00000002    -0.23583109    -0.00000024
 C        1.17917635     0.53638082    -0.00000087
 C        2.38148786    -0.39919056     0.00000100
 C        3.71734240     0.35093976    -0.00000110
 C        4.93460122    -0.58130988     0.00000212
 C       -6.26826674     0.17174251     0.00000161
 H       -4.88447756    -1.24012770     0.87696757
 H       -4.88447826    -1.24012057    -0.87697698
 H       -3.76862643     1.01087034    -0.87759642
 H       -3.76862639     1.01086422     0.87760354
 H       -2.31533189    -1.05219268     0.87901843
 H       -2.31533292    -1.05218858    -0.87902419
 H       -1.20638287     1.19538479    -0.88649906
 H       -1.20638343     1.19538273     0.88650103
 H        1.20638347     1.19538256    -0.88650185
 H        1.20638282     1.19538511     0.88649823
 H        2.31533261    -1.05218854     0.87902384
 H        2.31533216    -1.05219261    -0.87901878
 H        3.76862660     1.01086450    -0.87760317
 H        3.76862629     1.01087010     0.87759678
 C        6.26826672     0.17174248    -0.00000071
 H        4.88447779    -1.24012730    -0.87696778
 H        4.88447793    -1.24012100     0.87697677
 H        7.11783151    -0.51856763     0.00000193
 H        6.36064372     0.81333530     0.88365000
 H        6.36064375     0.81332859    -0.88365628
 H       -7.11783152    -0.51856760    -0.00000115
 H       -6.36064400     0.81333581    -0.88364872
 H       -6.36064351     0.81332814     0.88365755
