22
Dipropylamine
 C        1.22126501     0.38313371    -0.01138244
 C        2.46584846    -0.50493679     0.01768423
 C        3.76957040     0.29780273    -0.00430874
 N        0.00000011    -0.41000787     0.04875519
 C       -1.22126505     0.38313224    -0.01140348
 C       -2.46584905    -0.50493601     0.01772053
 C       -3.76957062     0.29780263    -0.00432428
 H        1.23080686     1.05275379     0.86015329
 H        1.26077754     1.04189609    -0.90235146
 H        2.42266155    -1.13825626     0.91118026
 H        2.44092976    -1.18590487    -0.84470443
 H        3.83997243     0.96243779     0.86401412
 H        4.64257415    -0.36183987     0.01123951
 H        3.83923350     0.92057864    -0.90318674
 H        0.00000723    -1.07773255    -0.71753716
 H       -1.23079504     1.05279131     0.86010162
 H       -1.26078654     1.04185527    -0.90240100
 H       -2.44093084    -1.18596119    -0.84462291
 H       -2.42266168    -1.13819684     0.91125808
 H       -3.83996347     0.96250703     0.86394612
 H       -3.83924184     0.92050737    -0.90325103
 H       -4.64257494    -0.36183778     0.01128544
