21
1-Propoxypropane
 C       -2.38164572     0.51766093    -0.00000041
 C       -1.17892633    -0.41740627     0.00000018
 O        0.00000001     0.35419219     0.00000012
 C        1.17892633    -0.41740628    -0.00000011
 C        2.38164571     0.51766092     0.00000034
 C       -3.71125185    -0.24150320     0.00000012
 H       -2.31511216     1.16958246     0.87866796
 H       -2.31511219     1.16958131    -0.87866964
 H       -1.20743599    -1.07655592    -0.88654714
 H       -1.20743631    -1.07655526     0.88654799
 H        1.20743619    -1.07655525    -0.88654794
 H        1.20743611    -1.07655597     0.88654718
 C        3.71125185    -0.24150319    -0.00000023
 H        2.31511208     1.16958239    -0.87866807
 H        2.31511224     1.16958137     0.87866952
 H       -4.55935744     0.44944297    -0.00000052
 H       -3.80550774    -0.88215595    -0.88401896
 H       -3.80550786    -0.88215447     0.88402025
 H        4.55935744     0.44944299     0.00000020
 H        3.80550784    -0.88215580     0.88401894
 H        3.80550777    -0.88215460    -0.88402027
