39
Dodecanol
 O        7.44373760    -0.42445939     0.00000287
 C       -0.06238198    -0.37970255    -0.00000173
 C       -1.34496053     0.46024539    -0.00000081
 C        1.21964585     0.46107987    -0.00000178
 C       -2.62688410    -0.38069076    -0.00000139
 C        2.50152281    -0.37960266    -0.00000096
 C       -3.90963912     0.45897060     0.00000106
 C        3.78330237     0.46177852    -0.00000144
 C       -5.19134735    -0.38182422    -0.00000055
 C        5.06054872    -0.38414870     0.00000090
 C       -6.47454074     0.45711313     0.00000281
 C        6.33081641     0.45643353    -0.00000001
 C       -7.74983480    -0.39145388     0.00000055
 H       -0.06203637    -1.04188063     0.87727117
 H       -0.06203696    -1.04187987    -0.87727520
 H       -1.34523820     1.12245171    -0.87731839
 H       -1.34523788     1.12245004     0.87731803
 H        1.21950878     1.12321892     0.87738477
 H        1.21950925     1.12321813    -0.87738891
 H       -2.62650953    -1.04290186    -0.87728042
 H       -2.62650830    -1.04290497     0.87727529
 H        2.50272940    -1.04141146    -0.87726871
 H        2.50272912    -1.04141000     0.87726789
 H       -3.90998826     1.12121021    -0.87731995
 H       -3.90998762     1.12120593     0.87732530
 H        3.78108158     1.12350708    -0.87768724
 H        3.78108035     1.12350993     0.87768219
 H       -5.19190634    -1.04429255    -0.87726569
 H       -5.19190518    -1.04429775     0.87726067
 H        5.07930792    -1.04054995    -0.87893561
 H        5.07930692    -1.04054646     0.87894004
 H       -6.47416846     1.11830363     0.87694950
 H       -6.47416926     1.11830947    -0.87693948
 H        6.34226888     1.11214059     0.88697929
 H        6.34227030     1.11213659    -0.88698224
 H       -8.64818598     0.23423445     0.00000317
 H       -7.79463021    -1.03829598    -0.88352871
 H       -7.79462930    -1.03830208     0.88352539
 H        8.24639804     0.10355900     0.00000246
