10
1,3-Dioxolan-2-one
 O       -0.00476872     1.11258767     0.07420732
 C       -1.37680772     0.76151422    -0.10557611
 H       -1.68937743     1.04616162    -1.11605127
 H       -1.98089252     1.30240458     0.62541183
 C       -1.37680802    -0.76151403     0.10557528
 H       -1.98089157    -1.30240383    -0.62541414
 H       -1.68937964    -1.04616202     1.11604966
 O       -0.00476874    -1.11258781    -0.07420591
 C        0.77122284    -0.00000002     0.00000004
 O        1.95932851    -0.00000000    -0.00000057
