11
Ethyl formate
 C        0.84229778    -0.49981308    -0.00000047
 C        2.29039044    -0.04874240     0.00000039
 O        0.01563793     0.68497188    -0.00000023
 C       -1.30452720     0.47497547     0.00000009
 O       -1.85031743    -0.59409603     0.00000021
 H       -1.81875074     1.44982705     0.00000025
 H        0.59705277    -1.09870276     0.88279085
 H        0.59705355    -1.09870182    -0.88279266
 H        2.95007269    -0.92159471     0.00000008
 H        2.51231077     0.55150664     0.88679849
 H        2.51231148     0.55150781    -0.88679675
