18
Ethyl lactate
 C        3.17205163    -0.64953770     0.14515072
 C        2.09330975     0.41480345     0.08361187
 O        0.82368280    -0.25420736    -0.06705334
 C       -0.26349237     0.53956383    -0.14451883
 C       -1.53814473    -0.28377427    -0.35794437
 O       -1.39003476    -1.64405484    -0.01580216
 O       -0.22082253     1.74176131    -0.09868340
 C       -2.70343139     0.30254394     0.43352390
 H        4.15159368    -0.17637806     0.26147343
 H        3.01160252    -1.32084125     0.99357615
 H        3.18605615    -1.24674393    -0.77113661
 H        2.23181472     1.09550085    -0.76210714
 H        2.06045696     1.02198209     0.99334148
 H       -1.75830367    -0.17691758    -1.43668777
 H       -2.51536085     0.20786171     1.50672374
 H       -2.83329662     1.35780328     0.18714966
 H       -3.61916653    -0.24293564     0.19342715
 H       -0.47506381    -1.88858345    -0.18760015
