13
Isobutanal
 C        0.56724232    -1.46957255     0.05768930
 C        0.52102476    -0.01501003    -0.41009763
 C        1.58237778     0.87230678     0.26827297
 C       -0.85096316     0.60445255    -0.21754753
 O       -1.81146037     0.03910382     0.23677141
 H       -0.91592534     1.67261457    -0.53693308
 H        0.70413195     0.03109141    -1.49628852
 H        1.51065772     1.91318147    -0.06497043
 H        2.58822799     0.51335092     0.03259359
 H        1.46520276     0.85670823     1.35715801
 H       -0.20178577    -2.06686625    -0.43827619
 H        0.38695664    -1.53502424     1.13505300
 H        1.54504310    -1.91250939    -0.15398221
