20
Isobutyl acetate
 C        0.51093268     0.56990748     0.00598398
 O       -0.57574248    -0.34080965     0.25405048
 C        1.82017868    -0.14371596     0.32882272
 C       -1.81143002     0.12324691    -0.02015149
 C        2.98587840     0.84849733     0.21841343
 C        2.03383345    -1.36644914    -0.57285232
 C       -2.85678195    -0.92596160     0.28292877
 O       -2.03068171     1.22797267    -0.44782704
 H        0.47661524     0.89115486    -1.04179730
 H        0.37404057     1.46128098     0.62773632
 H        1.75405424    -0.48790259     1.36978576
 H        3.07780638     1.23652319    -0.80300092
 H        3.93309196     0.36354816     0.47352567
 H        2.85428911     1.70315617     0.89041630
 H        2.94886928    -1.90024213    -0.29701766
 H        2.12846594    -1.06364437    -1.62286539
 H        1.19515039    -2.06304575    -0.49659917
 H       -3.84592389    -0.52752538     0.06037453
 H       -2.79975407    -1.21982083     1.33495626
 H       -2.67231277    -1.82302184    -0.31522858
