17
Isobutyl formate
 O       -0.90008107    -0.38091870    -0.43675971
 O       -3.00250562     0.25093273    -0.04410658
 C        1.49449119     0.04965203    -0.34025272
 C        0.33231915    -0.81485786     0.15093783
 C        2.81844199    -0.54011398     0.16435289
 C        1.32846245     1.51444732     0.08130039
 C       -1.93824934    -0.09877848     0.36858300
 H        1.48657042     0.00102011    -1.43692097
 H        0.48023120    -1.86108066    -0.13970958
 H        0.25747419    -0.77349324     1.24738723
 H        2.94981455    -1.57765904    -0.16101732
 H        3.66737783     0.03820974    -0.21195522
 H        2.86737564    -0.52272482     1.25978185
 H        2.14754201     2.12559937    -0.31002692
 H        0.38979271     1.93227273    -0.29229502
 H        1.33533600     1.61181627     1.17412019
 H       -1.69431380    -0.22490011     1.44285186
