12
Methacyrlic acid
 C        1.68537911    -1.02609876    -0.00000022
 C        0.77206030     0.16917907    -0.00000000
 C       -0.68291074    -0.15529184     0.00000001
 O       -1.12163869    -1.28141110     0.00000026
 O       -1.48971760     0.93176377    -0.00000026
 H        2.73283847    -0.71617907     0.00000001
 H        1.50146929    -1.65673014     0.87579174
 H        1.50146956    -1.65672961    -0.87579263
 C        1.19435473     1.43638601     0.00000024
 H       -2.39373412     0.58738708    -0.00000016
 H        2.25342054     1.67468602     0.00000030
 H        0.49862759     2.26614565     0.00000040
