20
Methionine
 N       -2.37426395     1.68455017     0.11739869
 C       -1.39763654     0.61755351     0.40673717
 C       -2.01680946    -0.73794065    -0.01263073
 O       -3.34338479    -0.69039839    -0.16487211
 C       -0.00237876     0.85587780    -0.20218427
 C        1.09453700    -0.05177565     0.36150042
 C        3.75635416    -0.87222222     0.36686450
 S        2.71297259     0.44178288    -0.33400692
 O       -1.37936829    -1.74785021    -0.15943541
 H       -3.57946705     0.25382673    -0.02587523
 H       -2.23894040     2.04257504    -0.82429416
 H       -2.25997492     2.46783950     0.75055598
 H       -1.30292840     0.56253352     1.49952648
 H        0.26320852     1.90324096    -0.01159580
 H       -0.05636679     0.73363580    -1.29094099
 H        0.88696658    -1.09144061     0.10756214
 H        1.13629097     0.03823915     1.45354474
 H        4.77284705    -0.69572776     0.00922068
 H        3.42514206    -1.85658261     0.02692687
 H        3.75447702    -0.83763860     1.45944790
