35
Methyl decanoate
 O        5.16556535    -0.71375887     0.00000427
 O        4.21241706     1.32459861    -0.00000644
 C       -2.30199083    -0.44901454    -0.00000257
 C       -0.98783054     0.34034780     0.00000288
 C       -3.54978771     0.44175220     0.00000380
 C        0.25962591    -0.55081012    -0.00000289
 C       -4.86415503    -0.34698037    -0.00000226
 C        1.56921999     0.24502470     0.00000172
 C       -6.11249259     0.54298655     0.00000435
 C        2.80624019    -0.65375167    -0.00000335
 C       -7.42086650    -0.25360293    -0.00000194
 C        4.10745361     0.12391444    -0.00000201
 C        6.44890139    -0.08086100     0.00000445
 H       -2.32827531    -1.11064351     0.87736334
 H       -2.32827540    -1.11063116    -0.87737779
 H       -0.96041358     1.00171650     0.87719435
 H       -0.96041333     1.00172816    -0.87717979
 H       -3.52331120     1.10337598     0.87730001
 H       -3.52331091     1.10338892    -0.87728265
 H        0.23299349    -1.21275988     0.87732236
 H        0.23299322    -1.21274897    -0.87733636
 H       -4.89136588    -1.00887005     0.87729685
 H       -4.89136570    -1.00885682    -0.87731135
 H        1.60583613     0.90608294     0.87367284
 H        1.60583646     0.90609290    -0.87366176
 H       -6.08546326     1.20359476     0.87693863
 H       -6.08546300     1.20360815    -0.87691984
 H        2.81466984    -1.31970618     0.87225062
 H        2.81466775    -1.31969786    -0.87226385
 H       -8.29321938     0.40781199     0.00000290
 H       -7.49172079    -0.89808905     0.88354757
 H       -7.49172043    -0.89807566    -0.88356124
 H        7.18004314    -0.88990989     0.00000988
 H        6.57214524     0.54517835     0.88787916
 H        6.57214951     0.54517029    -0.88787535
