21
2‐[(2‐hydroxyethyl)(methyl)amino]ethan‐1‐ol
 O       -3.50054356    -0.76019792     0.05577800
 O        3.50053376    -0.76022338     0.05576385
 N       -0.00000053     0.37359913    -0.08057422
 C       -1.21649533    -0.26030874     0.41873244
 C        1.21649267    -0.26031373     0.41872850
 C        0.00000202     1.81206052     0.15586291
 C       -2.41846092    -0.02658438    -0.49589211
 C        2.41847117    -0.02655272    -0.49586994
 H       -4.27570651    -0.61203482    -0.49141325
 H        4.27571786    -0.61200027    -0.49138115
 H       -1.47807328     0.06718845     1.44248650
 H       -1.05572757    -1.34152387     0.46493513
 H        1.05573299    -1.34153190     0.46489144
 H        1.47805268     0.06715140     1.44249773
 H       -0.87954290     2.27541228    -0.29818316
 H        0.87953067     2.27541553    -0.29821156
 H        0.00001857     2.06453499     1.23405923
 H       -2.66238871     1.04487102    -0.55944785
 H       -2.16222636    -0.36873821    -1.51009645
 H        2.16223942    -0.36863736    -1.51009852
 H        2.66242161     1.04490153    -0.55935434
