41
Methyl dodecanoate
 O        6.40514849    -0.69190606     0.00001302
 O        5.43453818     1.33819022    -0.00001593
 C       -2.31990586     0.38869075     0.00000340
 C       -1.06445944    -0.49130204    -0.00000581
 C       -3.62757534    -0.41159730    -0.00000454
 C        0.24288740     0.30931881     0.00000282
 C       -4.88321907     0.46808027     0.00000661
 C        1.49796769    -0.57107827    -0.00000841
 C       -6.19073797    -0.33197466    -0.00000407
 C        2.80068762     0.23595976     0.00000311
 C       -7.44685998     0.54696811     0.00001123
 C        4.04538386    -0.65215627    -0.00001051
 C       -8.74823581    -0.26101851    -0.00000225
 C        5.33987212     0.13664985    -0.00000476
 C        7.68299470    -0.04799960     0.00001535
 H       -2.29915720     1.05050798     0.87728131
 H       -2.29915752     1.05052575    -0.87726113
 H       -1.08504640    -1.15314645     0.87735848
 H       -1.08504629    -1.15312801    -0.87738400
 H       -3.64807797    -1.07349210     0.87730763
 H       -3.64807940    -1.07347234    -0.87733158
 H        0.26462131     0.97089796     0.87719701
 H        0.26462040     0.97091861    -0.87717582
 H       -4.86265470     1.12996648     0.87731914
 H       -4.86265450     1.12998926    -0.87728873
 H        1.47702317    -1.23324422     0.87731098
 H        1.47702402    -1.23322035    -0.87734584
 H       -6.21216828    -0.99410922     0.87727153
 H       -6.21217041    -0.99408209    -0.87730008
 H        2.83163506     0.89730206     0.87367857
 H        2.83163529     0.89732814    -0.87365241
 H       -7.42566727     1.20780439     0.87695389
 H       -7.42566784     1.20783449    -0.87690876
 H        4.05953693    -1.31802830     0.87223449
 H        4.05953262    -1.31800349    -0.87227495
 H       -9.62639483     0.39269155     0.00001057
 H       -8.81342041    -0.90612938     0.88353021
 H       -8.81342212    -0.90609703    -0.88355821
 H        8.42106685    -0.85073206     0.00003595
 H        7.80084868     0.57908976     0.88788155
 H        7.80086678     0.57906040    -0.88786927
