12
3‐Methyl‐2,5‐dihydrofuran‐2,5‐dione
 O       -0.71518670     1.03923922     0.00000002
 O        1.47008911     1.63031941    -0.00000002
 O       -2.59255075    -0.22855831     0.00000004
 C        0.82888662    -0.71520849    -0.00000000
 C       -0.39212618    -1.26133030    -0.00000008
 C        2.18959501    -1.31565732     0.00000006
 C        0.63943128     0.77377802    -0.00000001
 C       -1.40234900    -0.17532542    -0.00000003
 H       -0.67745146    -2.30404406    -0.00000005
 H        2.14852022    -2.40637796     0.00000182
 H        2.75303422    -0.97801753     0.87662051
 H        2.75303304    -0.97802048    -0.87662231
