17
3-Methylbenzaldehyde
 O       -2.84818126    -1.02231988    -0.00000045
 C       -2.32175757     0.06606552     0.00000044
 C       -0.86039029     0.29997436     0.00000033
 C       -0.36807705     1.60624842     0.00000082
 C        1.00742842     1.82334954     0.00000004
 C        1.87921075     0.73879992    -0.00000096
 C        1.40379059    -0.58267151    -0.00000098
 C        2.36951913    -1.74327224     0.00000109
 C        0.02732123    -0.78437009    -0.00000071
 H       -2.93329026     0.99749975     0.00000147
 H       -1.06109545     2.44324444     0.00000132
 H        1.40136272     2.83455334    -0.00000022
 H        2.95171202     0.91536548    -0.00000203
 H        1.84076061    -2.69954288    -0.00003398
 H        3.02076166    -1.71827867    -0.88096444
 H        3.02071090    -1.71831688     0.88100557
 H       -0.39053033    -1.78636681    -0.00000149
