20
Naphthalen-1-amine
 N        1.78752944     2.10153166    -0.01712525
 C       -0.01321328     0.43987365    -0.00236451
 C       -0.40499392    -0.93747157     0.01146244
 C        1.38451839     0.76238599     0.00969963
 C       -1.02489594     1.43327748    -0.03692612
 C        0.58579745    -1.95252203    -0.00123668
 C       -1.78908034    -1.24969821     0.02891918
 C        2.31546425    -0.26028041    -0.00860898
 C        1.91520949    -1.61134503    -0.02402052
 C       -2.35793312     1.09426618    -0.02526313
 C       -2.74482174    -0.26290351     0.01730981
 H       -0.74716621     2.47961151    -0.10721795
 H        0.27509357    -2.99242108     0.00254135
 H       -2.08019623    -2.29621985     0.04707568
 H        3.37419803    -0.01504388    -0.00084538
 H        2.67734364    -2.38450279    -0.03709501
 H       -3.11561430     1.87066206    -0.05759559
 H       -3.79861649    -0.52296786     0.02988937
 H        2.76705149     2.23181057     0.19261130
 H        1.21991264     2.72560001     0.53803276
