21
N-butylacetamide
 C       -3.25922464    -0.61667185    -0.54661960
 C       -2.02577894     0.13260760    -0.06009520
 N       -1.01159110    -0.65822444     0.40374452
 O       -1.95927566     1.34820419    -0.08643473
 H       -3.37145559    -0.44992168    -1.62195348
 H       -3.22617348    -1.69321142    -0.35764159
 H       -4.14016897    -0.19364920    -0.05795781
 C        0.26234644    -0.11896392     0.84875137
 H       -1.11703997    -1.65774457     0.35308822
 C        1.39892344    -0.33690759    -0.15813833
 H        0.09840533     0.94955039     1.00905862
 H        0.52543450    -0.56814654     1.81541380
 C        2.73658191     0.22731885     0.33307094
 H        1.50684716    -1.41175503    -0.36263729
 H        1.12067274     0.13420676    -1.10904164
 C        3.87841484     0.01544853    -0.66556305
 H        2.62170514     1.29974983     0.53748570
 H        2.99755480    -0.23861695     1.29291455
 H        4.81941313     0.42875350    -0.28918097
 H        4.03834396    -1.05031819    -0.86429543
 H        3.66047218     0.50081281    -1.62326659
