14
Nitrobenzene
 C        0.49164296     1.21859751    -0.00000000
 H       -0.07924565     2.13755743    -0.00000001
 C        1.88269878     1.21052046    -0.00000000
 H        2.42494116     2.14987541    -0.00000001
 C        2.57631463    -0.00000000     0.00000000
 H        3.66148363     0.00000000     0.00000000
 C        1.88269878    -1.21052046     0.00000000
 H        2.42494117    -2.14987541     0.00000001
 C        0.49164296    -1.21859750     0.00000000
 H       -0.07924565    -2.13755742     0.00000001
 C       -0.17926644     0.00000000    -0.00000000
 N       -1.65330114    -0.00000000     0.00000000
 O       -2.21994892     1.08449700     0.00000001
 O       -2.21994891    -1.08449701    -0.00000001
