19
N,N-diethylmethylamine
 N        0.00215525    -0.36294875    -0.19992425
 C       -0.82767141     0.63014166     0.48076673
 C        1.39298910    -0.33724285     0.25351665
 C       -0.55674938    -1.70204311    -0.09277576
 C       -2.15532198     0.90514268    -0.22899432
 C        2.17724135     0.88044742    -0.24041836
 H       -1.02071009     0.33456469     1.53259057
 H       -0.26435570     1.56650831     0.52365698
 H        1.46373156    -0.40680630     1.35798968
 H        1.87644433    -1.23915634    -0.13870323
 H       -1.56296803    -1.73333209    -0.51839058
 H        0.06204166    -2.40711150    -0.65655100
 H       -0.62083016    -2.06450776     0.95270346
 H       -2.82433208     0.03995209    -0.21332196
 H       -2.67942669     1.73051585     0.26348564
 H       -1.97836396     1.17956266    -1.27318865
 H        1.81385674     1.81831514     0.18975782
 H        3.23161713     0.78359713     0.03820439
 H        2.11033989     0.95855514    -1.32952500
