22
Butyldimethylamine
 N        1.57749731     0.02752892    -0.30675118
 C       -0.92196085     0.21861403    -0.19549003
 C        0.34428979    -0.51619507     0.25533882
 C       -2.20248213    -0.49121280     0.26094227
 C       -3.47763953     0.24418136    -0.16253912
 C        2.69562921    -0.87931541    -0.10624075
 C        1.89358504     1.35624000     0.19215203
 H       -0.90724563     0.30065307    -1.28956945
 H       -0.92887310     1.24381491     0.19483196
 H        0.38074131    -0.54082911     1.36510922
 H        0.27265293    -1.56107532    -0.07179146
 H       -2.18880313    -0.59992344     1.35369589
 H       -2.21646704    -1.51152610    -0.14497772
 H       -3.51017122     1.25489006     0.25962990
 H       -4.37503215    -0.28558869     0.17267193
 H       -3.53473714     0.34058757    -1.25253287
 H        2.47044975    -1.85395694    -0.55122809
 H        2.94240207    -1.04229705     0.96191101
 H        3.58940267    -0.48023790    -0.59723259
 H        1.09663996     2.06196366    -0.05492401
 H        2.81321210     1.71531616    -0.28085311
 H        2.04502268     1.38165870     1.29015018
