18
bis(prop‐2‐en‐1‐yl)amine
 C       -2.94060067    -0.15332307     0.61679513
 C       -2.24971324     0.66836931    -0.16833500
 C       -0.79826693     0.52106048    -0.53314469
 N       -0.23225262    -0.75364465    -0.11927025
 C        1.19392923    -0.89445441    -0.40916196
 C        2.03218167    -0.08215420     0.54157625
 C        2.98028378     0.77635980     0.17777767
 H       -3.98994231     0.01840884     0.83209926
 H       -2.47380986    -1.01497266     1.08178378
 H       -2.74096630     1.53518436    -0.60830327
 H       -0.22104457     1.32240973    -0.04938666
 H       -0.68570474     0.70554354    -1.62135367
 H       -0.74789112    -1.50542867    -0.56369813
 H        1.45661505    -0.62462014    -1.44940957
 H        1.44325415    -1.95674102    -0.28297618
 H        1.81264950    -0.24444170     1.59585036
 H        3.20853064     0.96230874    -0.86870292
 H        3.57183267     1.32132911     0.90620621
