10
Oxetane
 C        1.12631583     0.00000000     0.00000003
 C       -0.01745328     1.03649723    -0.00000003
 C       -0.01745328    -1.03649723    -0.00000003
 O       -1.01887552    -0.00000000     0.00000004
 H       -0.08559835    -1.67239997     0.89198582
 H       -0.08559833    -1.67239984    -0.89198598
 H        1.75872178     0.00000001     0.88926353
 H        1.75872193     0.00000000    -0.88926337
 H       -0.08559835     1.67239984    -0.89198598
 H       -0.08559836     1.67239997     0.89198582
