12
Oxolan-2-one
 O       -0.06596366     1.09571581    -0.03410838
 O       -2.00329087    -0.03307244    -0.06224159
 C        1.49500517    -0.68061073    -0.21647797
 C        0.12384623    -1.24280749     0.16972992
 C        1.33104146     0.80962824     0.12762764
 C       -0.81026327    -0.04439412     0.01047797
 H        2.33099766    -1.13887464     0.31560943
 H        1.66859363    -0.80194042    -1.28996432
 H       -0.22529120    -2.07835622    -0.43787846
 H        0.08766079    -1.55817464     1.21922340
 H        1.61406247     1.02382258     1.16576276
 H        1.88829893     1.47892142    -0.53139033
