21
2,4,6-Trimethyl-1,3,5-trioxane
 C       -0.44103041     1.26994594    -0.34118780
 C       -0.89918417     2.58872577     0.23926664
 O       -1.31532791     0.25207845     0.09522460
 O        0.87599597     1.01314852     0.09522419
 C       -0.87933359    -1.01698575    -0.34114698
 C        1.32043610    -0.25295893    -0.34120307
 C       -1.79246100    -2.07302803     0.23934131
 O        0.43942796    -1.26514195     0.09503642
 C        2.69152138    -0.51578760     0.23936971
 H       -0.44786439     1.28928460    -1.44927714
 H       -1.91798850     2.80637454    -0.08959537
 H       -0.87988959     2.53184490     1.33012482
 H       -0.23438984     3.39110975    -0.08892956
 H       -0.89303348    -1.03261728    -1.44923403
 H        1.34071584    -0.25655962    -1.44927615
 H       -1.47149176    -3.06423192    -0.08925117
 H       -1.75328509    -2.02765326     1.33019961
 H       -2.81960838    -1.89850044    -0.08928941
 H        3.05390966    -1.49266872    -0.08905267
 H        3.38953168     0.25769403    -0.08923806
 H        2.63248535    -0.50437083     1.33022026
