15
Pentanenitrile
 C        2.98818835     0.49291488     0.00000004
 H        3.93834470    -0.04956798    -0.00000065
 H        2.97257776     1.13963505     0.88398379
 H        2.97257721     1.13963632    -0.88398278
 C        1.79921424    -0.47236556    -0.00000028
 H        1.85793608    -1.12947603    -0.87781118
 H        1.85793629    -1.12947687     0.87780997
 C        0.44982326     0.25336549     0.00000019
 H        0.37411014     0.90506029     0.87808153
 H        0.37410980     0.90506071    -0.87808081
 C       -0.73814524    -0.73012795     0.00000018
 H       -0.69012247    -1.38346352    -0.87950963
 H       -0.69012257    -1.38346345     0.87951005
 C       -2.03296906    -0.05043001     0.00000005
 N       -3.04663333     0.50513881    -0.00000017
