18
Phenyl acetate
 C        0.72412730    -1.00762752    -0.41405026
 C        0.25160876     0.28138282    -0.17890136
 C        1.11724972     1.30917915     0.18380855
 C        2.47738933     1.04497366     0.31793922
 C        2.96630949    -0.24038169     0.09271716
 C        2.08746881    -1.25836794    -0.27258939
 O       -1.07760918     0.64567836    -0.36651153
 C       -2.09834782    -0.12359148     0.11471395
 C       -3.41829591     0.51953691    -0.23685419
 O       -1.95269824    -1.14650848     0.72329658
 H        0.71356350     2.30160708     0.35045162
 H        3.15305841     1.84614951     0.59936966
 H        4.02589194    -0.44744638     0.19923949
 H        2.46186230    -2.26116381    -0.45163169
 H        0.04042627    -1.79761507    -0.69253824
 H       -3.46881731     1.52673710     0.18628528
 H       -4.23290683    -0.09077507     0.15089901
 H       -3.50732443     0.61871106    -1.32254682
