17
Piperidine
 N       -1.36642804     0.00002821    -0.28411400
 C       -0.73408984    -1.21387087     0.22922452
 C        0.72857286    -1.26363369    -0.22576334
 C        1.47628831    -0.00002899     0.22558469
 C        0.72862337     1.26360432    -0.22576647
 C       -0.73403891     1.21389939     0.22922768
 H        0.75262195    -1.33456501    -1.32007490
 H        1.21227742    -2.16256614     0.17303218
 H        1.55376195    -0.00002886     1.32212873
 H        2.50183776    -0.00005057    -0.16056826
 H        0.75267099     1.33453068    -1.32007838
 H       -0.76392306     1.27098201     1.33632395
 H       -1.28300645     2.08161314    -0.15316153
 H       -2.35365485     0.00004836    -0.05462363
 H       -1.28308988    -2.08156084    -0.15317220
 H       -0.76398448    -1.27095835     1.33632022
 H        1.21236496     2.16251891     0.17302444
