16
Benzene-1,4-diamine
 C        1.41872866     0.00002716     0.00473248
 C        0.69516744     1.19810012     0.00242667
 C        0.69519262    -1.19806853     0.00244381
 N        2.82507567     0.00000810    -0.05925263
 C       -0.69519261     1.19806850    -0.00244347
 C       -1.41872864    -0.00002716    -0.00473240
 C       -0.69516749    -1.19810001    -0.00242674
 N       -2.82507574    -0.00000769     0.05925246
 H        1.22864386     2.14506583    -0.00136988
 H        1.22871887    -2.14500832    -0.00138283
 H        3.24614214    -0.82766169     0.34005613
 H        3.24624966     0.82745212     0.34041012
 H       -1.22871884     2.14500824     0.00138354
 H       -1.22864380    -2.14506577     0.00136936
 H       -3.24624890    -0.82745528    -0.34040373
 H       -3.24614192     0.82765829    -0.34006453
