14
Propyl formate
 C        2.87198886    -0.49702712    -0.00000014
 C        1.70295315     0.49293242     0.00000019
 C        0.36134327    -0.22137515     0.00000007
 O       -0.67560579     0.78283402    -0.00000007
 C       -1.93175321     0.32607345    -0.00000009
 O       -2.26495671    -0.82709276     0.00000006
 H       -2.62171963     1.18556613    -0.00000026
 H        0.23755463    -0.85773601     0.88310337
 H        0.23755482    -0.85773603    -0.88310326
 H        1.75790891     1.14512280     0.87912787
 H        1.75790881     1.14512324    -0.87912717
 H        3.82973777     0.03071175     0.00000003
 H        2.84769991    -1.14325019    -0.88418572
 H        2.84769994    -1.14325079     0.88418500
