26
Hexan-2-yl acetate
 C       -3.68221122     1.14322659     0.26531217
 C       -2.61096932     0.20285136    -0.24050993
 O       -1.45298425     0.40837451     0.41623482
 C       -0.31688992    -0.41393755     0.03710880
 C       -0.38954517    -1.74056675     0.78716401
 O       -2.76227286    -0.61706526    -1.11183448
 C        0.92146032     0.42651280     0.34707379
 C        2.23380180    -0.19071560    -0.15113672
 H        0.97478689     0.59975890     1.42991281
 H        0.78267075     1.41009473    -0.11808315
 H       -0.39134836    -0.59891578    -1.03918001
 H       -3.36315849     2.18103219     0.13314172
 H       -3.84182840     0.98709712     1.33610983
 H       -4.60885237     0.96532790    -0.27922293
 C        3.44473644     0.72232289     0.07753471
 H        2.14836346    -0.41626298    -1.22348287
 H        2.41301356    -1.15132869     0.34857009
 H       -1.31056111    -2.26880175     0.53068189
 H       -0.36400536    -1.57271377     1.86898763
 H        0.45365290    -2.38266880     0.51700298
 C        4.75928845     0.10889812    -0.41357768
 H        3.52471496     0.95490766     1.14771133
 H        3.27447339     1.68140894    -0.42914359
 H        5.60407892     0.78276656    -0.23953109
 H        4.71945209    -0.10477120    -1.48760197
 H        4.97378278    -0.83386833     0.10220855
