11
Succinic anhydride
 O       -0.00000000    -0.92568684     0.00000000
 O        2.23170869    -0.64187463     0.00000049
 O       -2.23170869    -0.64187463    -0.00000049
 C        0.76481176     1.32205953    -0.00000130
 C       -0.76481176     1.32205953     0.00000130
 C        1.14878361    -0.15141502    -0.00000010
 C       -1.14878361    -0.15141502     0.00000012
 H        1.20822848     1.79699395    -0.87869787
 H        1.20823198     1.79699669     0.87869196
 H       -1.20822850     1.79699399     0.87869784
 H       -1.20823197     1.79699666    -0.87869199
