33
Tetraethoxysilane
Si        0.00000735    -0.00000207     0.00000051
 O        0.10055511    -1.36610732    -0.87949197
 O       -1.36604604    -0.10052995     0.87957548
 O       -0.10057207     1.36603191    -0.87959834
 O        1.36609310     0.10059720     0.87951681
 C        1.22334302    -1.81456703    -1.62779140
 C       -1.81448283    -1.22330851     1.62790277
 C       -1.22339407     1.81444531    -1.62787411
 C        1.81453384     1.22342959     1.62776050
 C        1.02199307    -3.27425835    -2.00526997
 C       -3.27416980    -1.02196786     2.00540431
 C       -1.02208818     3.27412877    -2.00540806
 C        3.27422075     1.02211023     2.00527297
 H        2.13767977    -1.69184238    -1.03355919
 H        1.32977808    -1.19935359    -2.53219869
 H       -1.69175954    -2.13765511     1.03368567
 H       -1.19925215    -1.32971932     2.53230101
 H       -1.32984553     1.19919993    -2.53225767
 H       -2.13770893     1.69172170    -1.03360791
 H        1.19930575     1.32991113     2.53215240
 H        1.69181282     2.13773273     1.03347558
 H        0.93434922    -3.89424218    -1.10806696
 H        0.10946572    -3.39588603    -2.59647675
 H        1.86976471    -3.63615038    -2.59609771
 H       -3.39579718    -0.10943008     2.59659507
 H       -3.89417164    -0.93434951     1.10821122
 H       -3.63604088    -1.86973186     2.59625591
 H       -0.10958189     3.39575656    -2.59664733
 H       -0.93442991     3.89414480    -1.10822865
 H       -1.86988619     3.63598241    -2.59622162
 H        3.39584507     0.10961618     2.59653185
 H        3.63609824     1.86991677     2.59605959
 H        3.89421894     0.93442067     1.10808433
