40
Tributylamine
 N        0.00014395    -0.00124764    -0.27915891
 C       -0.45617144     1.32737480    -0.69168260
 C        1.37855223    -0.27124635    -0.69233981
 C       -0.92282790    -1.06078339    -0.69047845
 H       -0.37777308    -2.01066792    -0.67915776
 H       -1.26050711    -0.91702838    -1.73612539
 C       -2.13780092    -1.19759711     0.23365293
 C        2.10706796    -1.25154423     0.23353976
 H        1.92836067     0.67592626    -0.68543211
 H        1.42108947    -0.63926470    -1.73673739
 H       -1.55129204     1.33057535    -0.67947369
 H       -0.16369774     1.54697991    -1.73775263
 C        0.03359353     2.44890167     0.23095983
 C        3.55297419    -1.51599427    -0.20190596
 H        1.56535971    -2.20544557     0.27616866
 H        2.08748980    -0.84455579     1.25210033
 C        4.28985599    -2.48863379     0.72408388
 H        4.10053446    -0.56460795    -0.24251317
 H        3.55857760    -1.91130634    -1.22656524
 H        5.31871792    -2.65766313     0.39041803
 H        3.78640503    -3.46144804     0.75717703
 H        4.33059400    -2.10433816     1.74940799
 C       -3.09194517    -2.31583851    -0.20156949
 H       -2.69088953    -0.25015355     0.27394522
 H       -1.77760462    -1.38361815     1.25304243
 C       -4.30364280    -2.46392033     0.72383603
 H       -2.54409000    -3.26710921    -0.24093872
 H       -3.43591033    -2.12302177    -1.22660946
 H       -4.96623874    -3.26914757     0.39062239
 H       -4.89213816    -1.54003991     0.75575853
 H       -3.99227007    -2.69110985     1.74953771
 C       -0.46529563     3.83295990    -0.19997855
 H        1.13079608     2.45837123     0.26550405
 H       -0.30138338     2.22749959     1.25187895
 C        0.01539175     4.95726058     0.72275304
 H       -1.56329519     3.83053874    -0.23142913
 H       -0.13443470     4.03628788    -1.22731830
 H       -0.35638880     5.93273552     0.39308625
 H        1.10978620     5.00857712     0.74652674
 H       -0.32884205     4.79918929     1.75093776
