15
(Trichloromethyl)benzene
 C       -1.39044816    -1.16195899     0.00000026
 C       -0.69960135     0.05800769     0.00000035
 C       -1.42042498     1.25151234     0.00000027
 C       -2.81521683     1.22578950     0.00000016
 C       -3.49749727     0.01498482     0.00000010
 C       -2.77820706    -1.18099471     0.00000014
 C        0.81849299     0.01992574     0.00000007
Cl        1.58208864     1.64157342     0.00000223
Cl        1.41779089    -0.86174505     1.46212813
Cl        1.41779013    -0.86174092    -1.46213084
 H       -0.90255121     2.20101728     0.00000030
 H       -3.36282231     2.16240297     0.00000013
 H       -4.58242552    -0.00129809     0.00000002
 H       -3.29975041    -2.13234870     0.00000009
 H       -0.83677919    -2.09364825     0.00000027
