14
3,4-Dihyrdro-2H-pyran
 O       -1.39936412     0.07722658     0.10035666
 C       -0.59499191     1.18766031    -0.29981145
 C       -0.76239201    -1.12313572     0.07571848
 C        0.80258479     1.13739100     0.31469697
 H       -0.52371763     1.18906911    -1.39781778
 H       -1.14676597     2.07872040     0.01086803
 C        1.51703475    -0.15051899    -0.12502868
 H        1.36430357     2.02997005     0.01966124
 H        0.70668518     1.15570509     1.40632287
 C        0.55293747    -1.30699667    -0.05962193
 H        1.92424541    -0.03467022    -1.13986469
 H        2.38197677    -0.34025750     0.52260313
 H        0.93187465    -2.32271306    -0.08369741
 H       -1.47061132    -1.93808817     0.18899127
