16
3-Methyl-2-butanone
 C        1.62051016     0.93846405     0.51896684
 C        0.68450717    -0.26831730     0.40133402
 C       -0.72734426     0.16359400    -0.01159153
 C       -1.87763725    -0.67728879     0.51615306
 H       -1.68053785    -1.74676727     0.38693648
 H       -1.98471272    -0.50424013     1.59419331
 H       -2.80678589    -0.40225944     0.01516935
 H        0.61494355    -0.78236962     1.36892306
 C        1.20410124    -1.28266857    -0.64030969
 O       -0.91348711     1.11626382    -0.73297309
 H        1.63665842     1.49551998    -0.42108366
 H        1.28924781     1.62450988     1.30458369
 H        2.63918791     0.61538845     0.75515648
 H        1.27790928    -0.81103258    -1.62541277
 H        2.19873749    -1.64067929    -0.35728345
 H        0.54762763    -2.15429226    -0.72991680
