16
2-(Ethenyloxy)propane
 C       -1.98635098    -1.00206987    -0.06282369
 C       -0.93125942     0.02453112     0.32915482
 H       -2.06690980    -1.06679892    -1.15238419
 H       -2.96339925    -0.71942791     0.33999024
 H       -1.72167936    -1.99068413     0.32121128
 C       -1.24565087     1.42746529    -0.19050228
 H       -1.33118616     1.41658375    -1.28170223
 H       -0.45466804     2.13226947     0.08281862
 H       -2.18867083     1.79178687     0.22947750
 O        0.31176235    -0.44258210    -0.20770944
 H       -0.84385727     0.05474970     1.42673506
 C        1.43961730     0.04479788     0.36077364
 C        2.64209810    -0.06438963    -0.19844602
 H        1.30124341     0.50968726     1.33836211
 H        2.77581515    -0.52475045    -1.17012632
 H        3.51639109     0.29674936     0.32642605
