18
8-Oxatricyclo[3.2.1.0(1,5)]octane
 C       -1.08443039     1.25638949     0.32467248
 C        0.26368490     0.73310064    -0.09899564
 C       -1.99843025     0.00005549     0.14253866
 H       -1.44823333     2.11368860    -0.25082819
 H       -1.03636577     1.56278409     1.37687638
 C        0.26365381    -0.73313524    -0.09903507
 C       -1.08453082    -1.25636938     0.32448332
 H       -1.03651836    -1.56284818     1.37665573
 H       -1.44835818    -2.11356226    -0.25114908
 H       -2.40979256     0.00026354    -0.86884738
 H       -2.84001280     0.00006035     0.84038342
 C        1.72135368    -0.78815856     0.40068507
 C        1.72149512     0.78809417     0.40039326
 H        1.81588838     1.20362235     1.40670841
 H        2.42913205     1.28762880    -0.26541194
 H        2.42921474    -1.28821421    -0.26448444
 H        1.81506380    -1.20314641     1.40728486
 O        0.25695519     0.00000012    -1.33038473
