19
2,5-Dimethylphenol
 C        0.67388478     1.04130773    -0.00025621
 C       -0.68681307     0.74799374    -0.00002602
 C        1.63208719     0.02149622    -0.00029558
 C        1.18673894    -1.29915149    -0.00028066
 C        3.10409165     0.35790023     0.00041777
 C       -0.17931338    -1.58479827    -0.00003496
 C       -1.14338411    -0.58084342     0.00010785
 C       -2.62079838    -0.87436110     0.00022312
 O       -1.64110602     1.72593033    -0.00001854
 H        0.99349835     2.08248585    -0.00044687
 H        1.90787163    -2.11070339    -0.00045551
 H        3.38190310     0.94065510     0.88646394
 H        3.37916971     0.95698373    -0.87545129
 H        3.71682751    -0.54732238    -0.00872682
 H       -0.50759853    -2.62079505    -0.00004442
 H       -3.11441613    -0.44241613    -0.87758968
 H       -3.11461036    -0.44055005     0.87698950
 H       -2.80306204    -1.95216774     0.00130363
 H       -1.20876299     2.58533093    -0.00002539
