10
(Methylperoxy)methane
 O        0.54132546    -0.48152685     0.32759898
 C        1.62386898     0.15226424    -0.31647182
 O       -0.54132544     0.48152640     0.32759954
 C       -1.62386897    -0.15226382    -0.31647198
 H        2.44011062    -0.57639808    -0.27945080
 H        1.39326492     0.39294466    -1.36250182
 H        1.92568949     1.06551632     0.21090049
 H       -2.44010965     0.57639968    -0.27945261
 H       -1.39326404    -0.39294536    -1.36250152
 H       -1.92569162    -1.06551498     0.21090075
