10
Cyclobutane-1,3-dione
 C        0.00000561    -1.12165295     0.00000671
 C        1.06421278     0.00000567    -0.00001711
 C       -1.06421278    -0.00000554     0.00001856
 H        0.00003640    -1.76314082     0.88786556
 H       -0.00002443    -1.76308800    -0.88788929
 C       -0.00000562     1.12165319     0.00000393
 O       -2.25785713    -0.00000085    -0.00001055
 O        2.25785714     0.00000055    -0.00000096
 H        0.00002444     1.76307655     0.88790860
 H       -0.00003645     1.76315273    -0.88784626
