20
4,5-Dimethyl-1,3-dioxane
 C       -1.20618478     0.87373347    -0.71164496
 C        0.30552388     1.00365391    -0.45714938
 O       -1.80277238    -0.01042265     0.22778703
 C        0.88186380    -0.43116591    -0.47729768
 C        0.58636230     1.75654788     0.84965817
 O        0.16611808    -1.24607998     0.45342753
 C        2.36038657    -0.54969007    -0.14156821
 C       -1.20514979    -1.27636682     0.16932636
 H       -1.38559144     0.50344384    -1.73600245
 H       -1.71781227     1.83443160    -0.60159847
 H        0.74387895     1.55685457    -1.29904752
 H        0.71431375    -0.83865140    -1.49132516
 H        0.20072973     1.19793581     1.70587696
 H        0.09918853     2.73719824     0.83815717
 H        1.65665721     1.92223736     1.00016651
 H        2.55520527    -0.23440721     0.88648829
 H        2.95816768     0.07033644    -0.81718913
 H        2.68514957    -1.58872208    -0.24410554
 H       -1.36720772    -1.71736391    -0.83490933
 H       -1.68093028    -1.89398749     0.93462044
