22
1,2-Diethoxyethane
 C        0.57896516    -0.49367704     0.00002186
 C       -0.57896512     0.49367724     0.00002200
 O       -1.77464676    -0.24753801    -0.00002027
 O        1.77464684     0.24753795    -0.00002260
 C       -2.93362278     0.55748717     0.00004913
 C        2.93362263    -0.55748715     0.00004888
 C       -4.15421837    -0.34862570    -0.00004994
 C        4.15421838     0.34862559    -0.00004886
 H        0.51084143    -1.14359212     0.88804776
 H        0.51080100    -1.14363422    -0.88797024
 H       -0.51080231     1.14363329    -0.88797097
 H       -0.51084036     1.14359329     0.88804703
 H       -2.93961344     1.21497326     0.88649472
 H       -2.93960088     1.21514800    -0.88626679
 H        2.93961242    -1.21497268     0.88649499
 H        2.93960193    -1.21514878    -0.88626650
 H       -5.07194382     0.24726766     0.00003361
 H       -4.15566468    -0.98966103    -0.88632543
 H       -4.15564458    -0.98987856     0.88606827
 H        5.07194382    -0.24726783     0.00003844
 H        4.15566726     0.98965937    -0.88632548
 H        4.15564197     0.98988008     0.88606817
