21
Propyl (2E)-2-Butenoate
 O        0.56305100     0.41449004     0.00152935
 C       -0.54071633    -0.36407953     0.00072774
 C        1.81976003    -0.28088535     0.00042578
 O       -0.50374633    -1.57325829    -0.00000445
 C       -1.76440805     0.46836722     0.00054020
 C        2.92955928     0.75889474     0.00036828
 C        4.31735720     0.11060276    -0.00178198
 C       -2.97503176    -0.09430197    -0.00037966
 C       -4.27488809     0.64279626    -0.00119272
 H        1.87172548    -0.93013678     0.88191718
 H        1.87059496    -0.92900198    -0.88196511
 H       -1.62552642     1.54504265     0.00084268
 H        2.81131613     1.40416462    -0.87783481
 H        2.81319102     1.40234874     0.88014455
 H        4.46209549    -0.51925197    -0.88636669
 H        4.46442020    -0.52026276     0.88170272
 H        5.10409592     0.87035266    -0.00236021
 H       -3.01690571    -1.18245712    -0.00062626
 H       -4.13228319     1.72672381    -0.00164612
 H       -4.87488535     0.37135221     0.87640795
 H       -4.87415964     0.37052849    -0.87902935
