14
Butanedioic acid
 C        1.92000146     0.08247235     0.02654111
 C        0.55271321    -0.52569435    -0.19253231
 O        2.14090666     1.19607576     0.43043103
 H        0.37282539    -1.25118347     0.60928554
 C       -0.55271548     0.52578776    -0.19220626
 H        0.56555303    -1.11006872    -1.11717181
 H       -0.37267402     1.25084315     0.60994809
 H       -0.56570686     1.11063040    -1.11654556
 C       -1.91999764    -0.08247621     0.02664006
 O       -2.14092463    -1.19609807     0.43047869
 O        2.90201659    -0.79632963    -0.26929897
 O       -2.90199822     0.79627402    -0.26941782
 H        3.73773757    -0.34686438    -0.07542885
 H       -3.73775982     0.34681336    -0.07571882
