16
1,3,5,7-Tetroxane
 O       -0.58302414    -1.56503236     0.28607754
 C        0.70429244    -1.54064994    -0.26479498
 C       -1.54162526    -0.70484420    -0.26368233
 O       -1.56634689     0.58345542     0.28486522
 H       -2.51069672    -1.14804253    -0.02259836
 H       -1.41162186    -0.64617780    -1.36017016
 C       -0.70446422     1.54076712    -0.26465218
 O        0.58301643     1.56505853     0.28582630
 H       -1.14740784     2.51034691    -0.02512254
 H       -0.64428536     1.40986685    -1.36088998
 C        1.54185675     0.70479781    -0.26346085
 O        1.56627063    -0.58358468     0.28482670
 H        2.51073605     1.14794699    -0.02149521
 H        1.41319217     0.64642379    -1.36015227
 H        0.64337368    -1.40922928    -1.36097192
 H        1.14733160    -2.51034170    -0.02588004
