18
(2R,3S)-1,2,3,4-butanetetrol
 O        2.83938379     0.37389968     0.16745568
 C        1.80574577    -0.46090822    -0.35277960
 C        0.51348748     0.04569491     0.27849705
 O        0.38052173     1.43972747     0.02947565
 C       -0.73139152    -0.65681880    -0.26618896
 O       -0.58059607    -2.02433093     0.09254618
 C       -2.02936926    -0.06540065     0.31174793
 O       -2.35149596     1.19371906    -0.22890649
 H        3.64069071     0.23041364    -0.34161447
 H        1.73787638    -0.36667451    -1.44691286
 H        1.96228631    -1.51500651    -0.09558343
 H        0.56294526    -0.14327949     1.36320331
 H        1.25688396     1.81830623     0.17130758
 H       -0.76129965    -0.52560069    -1.36034342
 H       -1.33752675    -2.50825955    -0.25004451
 H       -2.85940328    -0.73947527     0.05938620
 H       -1.95317490    -0.04732537     1.41243990
 H       -1.55989652     1.73896729    -0.13113430
