10
3-Butenenitrile
 C       -2.24241153    -0.31836619    -0.29105073
 C       -1.14087936    -0.13807735     0.42763790
 C       -0.01357169     0.78586266     0.02274035
 C        1.27711904     0.09293330    -0.04819455
 H       -0.22295400     1.24369434    -0.94998591
 H        0.08879752     1.60490913     0.74754683
 N        2.28947293    -0.46250482    -0.09326531
 H       -3.03597237    -0.97719920     0.04430593
 H       -2.39701216     0.18499188    -1.24136936
 H       -1.00413317    -0.65907871     1.37212188
