16
2-Methylpropylamine
 C        1.75506013    -0.80122910    -0.01920252
 H        2.64641097    -0.35495120     0.43383456
 H        1.91561191    -0.82931469    -1.10397566
 H        1.68315033    -1.83618530     0.33280155
 C        0.49499121    -0.00004127     0.33225538
 C        0.62727962     1.45963907    -0.12337787
 C       -0.75016304    -0.67375995    -0.26430863
 H        0.36674035    -0.00456188     1.42264335
 N       -1.98845269    -0.01106725     0.16043968
 H       -2.10039367     0.86822024    -0.33418258
 H       -2.78826099    -0.57856682    -0.10101122
 H        0.70714710     1.52565632    -1.21616652
 H       -0.23101398     2.06023758     0.19358890
 H        1.52393470     1.92370480     0.30080497
 H       -0.62987250    -0.72766419    -1.36269711
 H       -0.79303945    -1.70954330     0.09381166
