14
Bicyclo[2.1.0]pentane-1-carbonitrile
 C       -0.80290742    -1.15892213    -0.51256093
 C       -1.89248529    -0.49512724     0.39170422
 C        0.14738562     0.01352548    -0.20265544
 H       -1.04306466    -1.29392721    -1.57108407
 H       -0.44528326    -2.10570327    -0.10587823
 C       -0.93886298     0.66884176     0.68401091
 H       -2.11441271    -1.09806050     1.27384487
 H       -2.83431938    -0.21934042    -0.09217839
 C       -0.50258353     1.32610070    -0.58542189
 C        1.54893191    -0.10225815     0.03029933
 H       -0.79496507     1.14418894     1.64663422
 H       -1.15997235     1.34946587    -1.45189791
 H        0.12944964     2.20007658    -0.47154201
 N        2.68609126    -0.21441317     0.22235357
