14
3‐Methylidenecyclobutane‐1‐carbonitrile
 C       -0.45506919     1.09680041    -0.04746482
 C       -1.49619371     0.00002977     0.11364195
 C        0.53459123     0.00009381    -0.57865452
 H       -0.67932436     1.91944309    -0.73039223
 H       -0.12043737     1.51307554     0.90803091
 C       -0.45504024    -1.09669033    -0.04758420
 H       -0.67927431    -1.91924954    -0.73061799
 H       -0.12047959    -1.51311399     0.90788538
 C       -2.81515566    -0.00011981     0.22493529
 H       -3.38206551     0.92452193     0.27215905
 H       -3.38168783    -0.92499536     0.27206523
 C        1.88870082     0.00006498    -0.05227208
 H        0.57204673     0.00012760    -1.67087865
 N        2.95865326    -0.00013952     0.38752729
