14
Cyclopent-1-ene-1-carbonitrile
 C        0.35038090    -0.05078798    -0.01249304
 C       -0.41670598    -1.15001632     0.01533498
 C       -0.47709506     1.21984893    -0.13070272
 C       -1.88133528    -0.81396795    -0.07554554
 C       -1.91398780     0.71853636     0.16404396
 H       -2.48657025    -1.37006775     0.64863602
 H       -2.26654207    -1.08641387    -1.06873562
 H       -2.15872336     0.91559412     1.21196055
 H       -2.66553095     1.22435783    -0.44606224
 H       -0.38031574     1.63651135    -1.14144420
 H       -0.14740481     1.99890511     0.56299230
 H       -0.03643986    -2.16414240     0.05968429
 C        1.77177113    -0.03660129     0.01298368
 N        2.92968614     0.01371648     0.03505427
