20
2-Methylpiperidine
 N       -0.32276801     1.15038665    -0.22140318
 C        1.06754934     1.27295144     0.21230099
 C       -0.99558427    -0.02975792     0.32698509
 C        1.87073843     0.06830588    -0.28705594
 H        1.16318626     1.33130957     1.31529759
 H        1.47823014     2.20321999    -0.19581303
 C        1.23083062    -1.23791309     0.20303485
 H        2.90884954     0.14375626     0.05588210
 H        1.88357579     0.08456680    -1.38371454
 C       -0.25908934    -1.28469832    -0.16481303
 H        1.33561165    -1.30290018     1.29524753
 H        1.75559015    -2.10550034    -0.21280290
 H       -0.73221617    -2.17757694     0.26058934
 H       -0.36913310    -1.34367007    -1.25550328
 C       -2.46375778    -0.02394027    -0.09457479
 H       -0.95158973    -0.03471758     1.43636317
 H       -0.83975247     1.98510420     0.03394284
 H       -2.54778326    -0.02574806    -1.18607126
 H       -2.98059313     0.86632604     0.28279439
 H       -2.98557370    -0.90247794     0.29776093
