22
Diisopropylamine
 N       -0.01273123    -0.51385564    -0.26068202
 C        1.23959215     0.23578484    -0.11574163
 C       -1.24299620     0.09065834     0.25983571
 H        1.07160427     1.22693556    -0.55496164
 C        2.32068564    -0.46537518    -0.94504543
 C        1.70498665     0.42968753     1.33982407
 C       -1.69324276     1.25253324    -0.63479851
 H       -1.11282322     0.48562051     1.28456655
 C       -2.32355157    -0.99315472     0.31781804
 H        0.10969098    -1.43185291     0.15736498
 H       -1.84921910     0.90042735    -1.65971487
 H       -0.95486376     2.05930790    -0.66296321
 H       -2.63045682     1.67982494    -0.26326796
 H       -2.48967675    -1.41847108    -0.67763936
 H       -3.26969405    -0.58251103     0.68262896
 H       -2.03175497    -1.80779760     0.99097598
 H        2.62510755     1.02279046     1.38306979
 H        1.91063641    -0.54011133     1.80999407
 H        0.95214859     0.94396808     1.94463046
 H        1.99888642    -0.56895964    -1.98444065
 H        2.51887150    -1.47053268    -0.55161268
 H        3.26325773     0.09069491    -0.91866197
