21
Heptanenitrile
 C        4.29200483     0.49269889     0.00009840
 H        5.22074950    -0.08636188    -0.00002738
 H        4.30332323     1.14075874    -0.88337088
 C        3.06346178    -0.42195449    -0.00032409
 H        4.30314455     1.14007688     0.88407756
 H        3.09689801    -1.08136842    -0.87781865
 H        3.09706560    -1.08219714     0.87655119
 C        1.73937584     0.35092600     0.00009483
 H        1.70391003     1.01170100    -0.87718937
 C        0.50516388    -0.55820456    -0.00013088
 H        1.70409577     1.01110804     0.87782895
 H        0.53813639    -1.21789416    -0.87848501
 H        0.53831661    -1.21842170     0.87782502
 C       -0.81313002     0.22227457     0.00022964
 H       -0.86335672     0.87642382    -0.87773067
 C       -2.04060924    -0.71189054     0.00029475
 H       -0.86293498     0.87619538     0.87837248
 H       -2.01943804    -1.36682506    -0.87905970
 H       -2.01968110    -1.36650388     0.87988752
 C       -3.30653674     0.02037166    -0.00000715
 N       -4.29646705     0.61724498    -0.00028094
