18
1,2-Butanediamine
 C        1.39441961    -0.22871513    -0.67650257
 C       -0.05499111     0.29156622    -0.50200568
 H        1.96905443     0.52823943    -1.22717088
 N        2.14361438    -0.54968922     0.53876122
 H        1.37943782    -1.12609941    -1.30902341
 C       -0.98018734    -0.76565398     0.12079853
 N       -0.15553450     1.53973311     0.26768435
 H       -0.43252911     0.51608413    -1.51068721
 C       -2.46100832    -0.37578682     0.09864596
 H       -0.83616283    -1.71454463    -0.41171484
 H       -0.66673527    -0.94737211     1.15892678
 H       -2.82159629    -0.26876635    -0.93066859
 H       -3.07821392    -1.13429153     0.59072650
 H       -2.61298205     0.58077440     0.60411640
 H        2.19937722     0.26376649     1.14437081
 H        1.67291553    -1.27673505     1.06821804
 H        0.22207413     1.39862444     1.20158841
 H        0.40768435     2.26689487    -0.16430926
