15
2-Methyl-3-hydroxypyridine
 C        0.74004401     1.38132167    -0.00008670
 C        1.90977642     0.62537234    -0.00005595
 C       -0.48164792     0.71865931     0.00002443
 H        0.77450501     2.46847914    -0.00027024
 C        1.79976108    -0.75930436     0.00004705
 H        2.88232785     1.10558602    -0.00014726
 N        0.62577615    -1.39897723     0.00007788
 C       -0.50306991    -0.69007598     0.00005156
 H        2.68820898    -1.38608215     0.00011025
 C       -1.81377106    -1.42962694    -0.00012450
 O       -1.68303612     1.36149677     0.00009210
 H       -1.62063208    -2.50305398    -0.00013116
 H       -2.41528298    -1.16910025    -0.87821042
 H       -2.41561240    -1.16920134     0.87777068
 H       -1.53653704     2.31284412     0.00005011
