21
Hexanamide
 C       -4.19142580     0.17861473    -0.07732332
 H       -4.28560062     0.41648023    -1.14296201
 H       -4.31553919     1.11365418     0.48079367
 H       -5.02276496    -0.48122564     0.19059478
 C       -2.83895815    -0.47264371     0.22697605
 C       -1.64517232     0.41954705    -0.13285898
 H       -2.78767528    -0.73156326     1.29285785
 H       -2.75633993    -1.42164780    -0.31884968
 H       -1.72673406     1.37010729     0.41403612
 C       -0.29262954    -0.23456667     0.16538728
 H       -1.69711211     0.68093121    -1.19965766
 H       -0.23684527    -0.50132845     1.22849072
 H       -0.19231279    -1.17537651    -0.38540322
 C        0.89797451     0.65891628    -0.19181882
 H        0.89543225     1.57654552     0.40986331
 C        2.23701287    -0.06434091    -0.04443923
 H        0.81933167     0.98027935    -1.24037175
 O        2.35484485    -1.26940682    -0.14763044
 N        3.30616565     0.75170028     0.20463038
 H        3.22546920     1.75296055     0.20723215
 H        4.22555735     0.34109761     0.20705687
