16
2-Nitrobutane
 N        0.83731005     0.38480170    -0.00973459
 C       -0.18641411    -0.63955223     0.46125587
 C       -1.51105052    -0.37473900    -0.26092356
 C        0.37403077    -2.03595234     0.20396916
 O        1.27920179     1.16232636     0.82073625
 O        1.14124908     0.36245469    -1.19274933
 C       -2.11328329     1.00458366     0.02238753
 H       -0.27678060    -0.43774516     1.53026394
 H       -2.20721765    -1.15973243     0.05684673
 H       -1.34712526    -0.50866901    -1.33524327
 H        0.53064634    -2.19267330    -0.86559660
 H       -0.33598766    -2.78262391     0.57036528
 H        1.32462468    -2.18453937     0.72389834
 H       -2.29231316     1.14952298     1.09297200
 H       -3.06925741     1.11866448    -0.49640492
 H       -1.45431844     1.80920056    -0.31824740
