11
Ethyl nitrate
 C        1.30614639    -0.48263550    -0.00023671
 C        2.62393629     0.27319888     0.00017476
 H        2.71287189     0.90431795     0.88810180
 H        2.71296700     0.90515773    -0.88714793
 H        3.44994720    -0.44375313    -0.00013663
 O        0.27465295     0.52751386    -0.00007388
 H        1.19279317    -1.11307517     0.88637482
 H        1.19299761    -1.11254268    -0.88725880
 N       -1.03270078     0.01008245     0.00002081
 O       -1.15582872    -1.19238955     0.00010605
 O       -1.87281071     0.86735775     0.00000029
