14
Dimethylfurazan monoxide
 C       -1.12396246     0.16289996    -0.00007652
 C        0.01692812    -0.68459210    -0.00016655
 N        1.08031958     0.11512617    -0.00011151
 O        0.58902522     1.46722170     0.00001800
 N       -0.77420414     1.42399751     0.00007923
 C       -2.55923025    -0.24531674     0.00002320
 C        0.16324575    -2.16660208     0.00009586
 O        2.28584014    -0.06559803     0.00005985
 H       -2.79638279    -0.84995286     0.88179538
 H       -3.19305383     0.64321657     0.00301044
 H       -2.79807365    -0.84504399    -0.88465264
 H       -0.29724427    -2.61308481    -0.88773237
 H        1.22507370    -2.42140205     0.00732215
 H       -0.30989391    -2.61358275     0.88094664
