14
1-Chlorobutane
 C       -0.65995321    -0.79881325     0.30912618
 C       -1.47296446     0.28707814    -0.40293832
 H       -0.94998041     1.24533774    -0.31334536
 H       -1.51648037     0.05818377    -1.47621139
 C       -2.89365732     0.41789078     0.15377010
 H       -2.87880608     0.67822982     1.21798845
 H       -3.45453040     1.19740205    -0.37082426
 H       -3.45106817    -0.52011720     0.05085558
 C        0.75028683    -0.99332518    -0.23066952
 H       -0.60811591    -0.58838490     1.38400161
 H       -1.17232025    -1.76669035     0.20565928
Cl        1.81390807     0.45014154     0.06903672
 H        1.25471385    -1.83168671     0.25080765
 H        0.75588856    -1.14623492    -1.31168726
