38
1-Chlorododecane
 C        5.58735116     0.61995829    -0.00020068
 C        4.34804742    -0.26335869    -0.00080566
 C        3.05795374     0.57015326    -0.00081134
 H        4.37165592    -0.91732500     0.87839733
 H        4.37199951    -0.91700759    -0.88024849
 C        1.79061666    -0.29363873    -0.00088106
 H        3.04777601     1.23049732    -0.87896149
 H        3.04767969     1.23044203     0.87740484
 C        0.49594007     0.52736606    -0.00038919
 H        1.80313733    -0.95491486     0.87646081
 H        1.80287609    -0.95452210    -0.87854347
 C       -0.77190203    -0.33470913    -0.00010550
 H        0.48530804     1.18915816    -0.87781484
 H        0.48578914     1.18900352     0.87717707
 C       -2.06759844     0.48485899     0.00052810
 H       -0.76044287    -0.99671787     0.87713692
 H       -0.76102442    -0.99646792    -0.87756362
 C       -3.33569695    -0.37675028     0.00066913
 H       -2.07851354     1.14703740    -0.87668432
 H       -2.07803568     1.14669029     0.87802654
 C       -4.63154058     0.44255821     0.00091199
 H       -3.32464899    -1.03883995     0.87793265
 H       -3.32484988    -1.03874505    -0.87668780
 C       -5.89967302    -0.41854020     0.00047213
 H       -4.64215975     1.10490333    -0.87623342
 H       -4.64234735     1.10441286     0.87844404
 C       -7.19583897     0.40021576     0.00010799
 H       -5.89010183    -1.08094922     0.87770242
 H       -5.88950747    -1.08083985    -0.87685570
 C       -8.45765587    -0.46820664    -0.00094665
 H       -7.20531024     1.06151969    -0.87669385
 H       -7.20622668     1.06112722     0.87720363
 H       -8.49167872    -1.11550990    -0.88460036
 H       -9.36553692     0.14352267    -0.00168208
 H       -8.49338136    -1.11571671     0.88249735
Cl        7.11388183    -0.36032928     0.00062781
 H        5.63620263     1.25285462     0.88774741
 H        5.63735957     1.25287682    -0.88807104
