56
1-Chlorooctadecane
 C        9.39988152     0.57997299     0.00435364
 C        8.15314331    -0.29278589    -0.00155845
 C        6.87013333     0.55162565    -0.00283050
 H        8.16885858    -0.94900284     0.87614584
 H        8.17379208    -0.94453486    -0.88248548
 C        5.59563231    -0.30151421    -0.00714762
 H        6.86753706     1.21370209    -0.87973591
 H        6.86353762     1.21031505     0.87661443
 C        4.30768628     0.53003871    -0.00677066
 H        5.60112196    -0.96487707     0.86870086
 H        5.60388426    -0.96050385    -0.88627040
 C        3.03304011    -0.32192129    -0.00831910
 H        4.30314036     1.19301648    -0.88335537
 H        4.30222938     1.19060424     0.87163877
 C        1.74364564     0.50755555    -0.00588793
 H        3.03928709    -0.98568267     0.86766236
 H        3.03870954    -0.98210695    -0.88700156
 C        0.46914296    -0.34456845    -0.00502325
 H        1.73693023     1.17056307    -0.88251835
 H        1.73911836     1.16867838     0.87218949
 C       -0.82078120     0.48408951    -0.00139165
 H        0.47673302    -1.00795835     0.87130948
 H        0.47367223    -1.00544177    -0.88327893
 C       -2.09519663    -0.36817748     0.00042169
 H       -0.82855116     1.14716005    -0.87799571
 H       -0.82486779     1.14533651     0.87662071
 C       -3.38524596     0.46029497     0.00383604
 H       -2.08733871    -1.03117219     0.87707587
 H       -2.09088488    -1.02953828    -0.87749735
 C       -4.65979626    -0.39176832     0.00479006
 H       -3.39267048     1.12357754    -0.87262363
 H       -3.38971745     1.12141139     0.88195315
Cl       10.91806986    -0.41319063     0.00617405
 H        9.45194270     1.21007906     0.89409995
 H        9.45740180     1.21482848    -0.88168423
 C       -5.94965568     0.43700571     0.00662204
 H       -4.65295193    -1.05455608     0.88161845
 H       -4.65479703    -1.05336501    -0.87295984
 C       -7.22450829    -0.41456714     0.00534164
 H       -5.95557027     1.10055372    -0.86965421
 H       -5.95524348     1.09789192     0.88490918
 C       -8.51403661     0.41469688     0.00485915
 H       -7.21952031    -1.07738546     0.88216020
 H       -7.21821610    -1.07614344    -0.87241515
 C       -9.78904043    -0.43615557     0.00113014
 H       -8.51803798     1.07836396    -0.87136648
 H       -8.52100195     1.07548692     0.88323972
 C      -11.07870866     0.39283183    -0.00128654
 H       -9.78670610    -1.09944122     0.87777844
 H       -9.78240011    -1.09779990    -0.87674326
 C      -12.34740718    -0.46550935    -0.00603420
 H      -11.08094586     1.05503579    -0.87746386
 H      -11.08580080     1.05298865     0.87640978
 H      -12.38450381    -1.11165799    -0.89042356
 H      -13.25051749     0.15328165    -0.00814366
 H      -12.39014374    -1.11368897     0.87662535
