18
1-Chloro-4-ethylbenzene
 C       -0.49062678     1.13580895     0.00013100
 C       -1.30516673     0.01143903    -0.00001053
 C        0.89526806     0.97383532     0.00022081
 C       -0.75493167    -1.26829577    -0.00011516
 C        1.47990399    -0.29419285     0.00015713
 C        0.62763063    -1.40670048    -0.00004502
Cl       -3.04746261     0.20192259    -0.00005905
 H       -0.93195251     2.12554402     0.00017246
 H        1.51857078     1.86085317     0.00036614
 C        2.98225867    -0.51529024     0.00031055
 H        1.05632765    -2.40547340    -0.00016039
 H       -1.40230517    -2.13732074    -0.00027331
 C        3.85261132     0.74338386    -0.00044510
 H        3.24136019    -1.12965012     0.87300166
 H        3.24137031    -1.13073016    -0.87161223
 H        3.66968765     1.36164415     0.88446094
 H        4.91187399     0.47051409    -0.00046240
 H        3.66939097     1.36081907    -0.88586931
