12
Pentachlorobenzene
 C        0.00000111    -1.80842569    -0.00000609
 C        1.20366092    -1.11501246    -0.00001513
 C       -1.20365905    -1.11502920     0.00001321
 C        1.21991348     0.28548414     0.00000324
 C       -1.21987428     0.28546056     0.00001588
 C        0.00001507     0.98226453     0.00000532
Cl        2.67738210    -2.02907543    -0.00001555
 H        0.00001263    -2.89010377    -0.00001930
Cl       -2.67740541    -2.02905488     0.00000680
Cl       -0.00003048     2.70960062    -0.00002025
Cl        2.71834712     1.14234139     0.00002609
Cl       -2.71831334     1.14233092    -0.00000217
