22
4,4-Dichlorobiphenyl
 C       -3.54158831    -0.00001442    -0.00001134
Cl       -5.29114076    -0.00001521     0.00007437
 C       -2.85490188     1.14580587    -0.39046622
 C       -2.85485049    -1.14582545     0.39038629
 C       -1.46431884     1.13735194    -0.38786467
 C       -1.46427774    -1.13728821     0.38772519
 C       -0.74090362     0.00004665    -0.00006642
 C        0.74087894     0.00000466    -0.00003403
 C        1.46428774    -1.13731193    -0.38780184
 C        1.46430092     1.13730034     0.38779268
 C        2.85486810    -1.14580784    -0.39039678
 C        2.85487899     1.14579893     0.39046362
 C        3.54160119    -0.00000601     0.00002797
Cl        5.29114947    -0.00000194     0.00001550
 H       -3.40338893     2.02723537    -0.70072620
 H       -3.40327158    -2.02729977     0.70063188
 H       -0.93253895     2.02347916    -0.71824206
 H       -0.93243704    -2.02340268     0.71803927
 H        0.93252664    -2.02345676    -0.71816657
 H        0.93247419     2.02341363     0.71812910
 H        3.40332009    -2.02727209    -0.70062416
 H        3.40331145     2.02724899     0.70076423
