23
1,2-Dibromoheptane
 C       -1.54116298    -0.36823678    -1.26525900
 C       -0.22203333     0.33013752    -0.98215816
 H       -1.39155298    -1.12253859    -2.04065796
 H       -2.31068226     0.33442404    -1.57779508
Br       -2.30588308    -1.34750533     0.26026837
Br       -0.52142140     1.89052744     0.21521268
 C        0.89401053    -0.56637587    -0.45609620
 H        0.08355414     0.80327123    -1.92077910
 H        0.63813760    -0.90752768     0.55175471
 C        2.28710837     0.07046146    -0.47035085
 H        0.89984376    -1.46378422    -1.09315822
 C        3.37931481    -0.89031264     0.01393762
 H        2.28310063     0.96792906     0.15874435
 H        2.52389253     0.40850494    -1.48912954
 C        4.78011729    -0.26743697     0.00496564
 H        3.37960913    -1.79315852    -0.61321560
 H        3.13921705    -1.22902893     1.03130761
 C        5.86806985    -1.22955054     0.49139854
 H        4.77840984     0.63327103     0.63280717
 H        5.01842736     0.07239044    -1.01181161
 H        5.67452058    -1.55903106     1.51835972
 H        6.85556189    -0.75776503     0.47389754
 H        5.91551495    -2.12500567    -0.13854269
