17
2,3-Dibromo-2-methylbutane
 C        0.53015885    -1.11962156     1.87968080
 C        0.62096633    -1.06143363     0.36072665
 H       -0.09918901    -1.95923432     2.19132233
 H        1.52350910    -1.26683202     2.30744362
 H        0.10769879    -0.19773548     2.28344166
 C       -0.70164242    -0.91082664    -0.41619319
Br        1.95855025     0.33406708    -0.12063727
 H        1.08968043    -1.97302821    -0.02130807
 C       -0.49529584    -0.82422386    -1.92760625
 H        0.03186171    -1.72335189    -2.27149267
 H       -1.45955584    -0.77667916    -2.43812940
 H        0.09538956     0.04737006    -2.20711538
 C       -1.63906505    -2.07932693    -0.07758575
Br       -1.64705241     0.76888441     0.15042208
 H       -1.14689077    -3.02820069    -0.32551894
 H       -1.92061135    -2.09723902     0.97547363
 H       -2.55234023    -2.00568050    -0.67156278
