14
1,4-Dibromobutane
 C       -0.33830159    -0.55451926     0.21584782
 C       -1.63999351    -0.89649386    -0.49294827
 H       -1.56342017    -0.78597530    -1.57483844
 H       -1.99323381    -1.90075520    -0.25717163
Br       -3.10486463     0.30752487     0.05055340
 C        0.78550174    -1.51323525    -0.20496863
 H       -0.05301592     0.47570928    -0.01531920
 H       -0.48609622    -0.61047156     1.30029948
 C        2.11650960    -1.25488727     0.48681323
 H        0.49924000    -2.54577697     0.04418289
 H        0.92814006    -1.48184603    -1.29111873
 H        2.01676430    -1.19592506     1.57091746
 H        2.85933673    -2.00851631     0.22967589
Br        2.93621440     0.46240902    -0.05135941
