29
Adamantane-2-carboxylic acid
 C        1.37550324    -0.58202839     1.59118722
 C        2.15736739     0.42614540     0.72399650
 C        0.07947242    -1.00001410     0.86692720
 C        2.51019179    -0.22113480    -0.63067056
 C        1.28423323     1.67202275     0.47623688
 C        0.44092224    -1.64818083    -0.48628894
 C       -0.78894332     0.26078394     0.65296067
 C        1.21592022    -0.64034256    -1.35664789
 H        1.05558276    -2.53905487    -0.30646798
 H       -0.46815770    -1.98066103    -0.99373792
 H        3.08123848     0.48513315    -1.24714613
 H        3.15178879    -1.09710207    -0.47299029
 C        0.33361375     0.60132043    -1.59921799
 C       -0.01383378     1.26223687    -0.24949152
 H        0.85946087     1.32479352    -2.23451752
 H       -0.58151721     0.31646605    -2.13275817
 H        1.04536650     2.16518945     1.42730717
 H        1.83110701     2.40199330    -0.13349078
 H        1.14191598    -0.13875719     2.56817544
 H        1.99174511    -1.46859757     1.78441757
 H        1.46596383    -1.10069662    -2.31937837
 H        3.07609061     0.72303544     1.24304009
 H       -0.61588165     2.16345349    -0.43065933
 C       -2.19379555    -0.07084206     0.14700303
 H       -0.94519228     0.74548842     1.63011886
 H       -0.48212690    -1.71535258     1.47453375
 O       -2.62126624    -1.17709895    -0.03726810
 O       -3.00456906     0.99962532    -0.06400574
 H       -2.53284799     1.81728050     0.13157789
