27
1-Cyanoadamantane
 C       -0.45402164     1.12420350    -0.93418253
 C        1.08678151     1.11814229    -0.92938836
 C       -0.98096538    -0.00006007    -0.00004193
 C        1.59869531    -0.24590166    -1.43327783
 C        1.59875056     1.36423944     0.50372593
 C       -0.45398762    -1.37122156    -0.50635349
 C       -0.45412252     0.24698591     1.44060144
 C        1.08680493    -1.36392855    -0.50361009
 H       -0.83688006    -1.56001928    -1.51560962
 H       -0.83692684    -2.17066306     0.13793857
 H        2.69532543    -0.24992918    -1.45678020
 H        1.25649671    -0.42211788    -2.46074885
 C        1.59873799    -1.11828993     0.92957976
 C        1.08670810     0.24584005     1.43295146
 H        2.69538097    -1.13680204     0.94485226
 H        1.25687479    -1.92010972     1.59597966
 H        1.25665690     2.34222889     0.86468967
 H        2.69538814     1.38667106     0.51206010
 H       -0.83682070     2.09245973    -0.59245229
 H       -0.83706331     0.96632177    -1.94867406
 H        1.44461760    -2.33561396    -0.86244259
 H        1.44451920     1.91475337    -1.59149466
 H        1.44440081     0.42093665     2.45391188
 H       -0.83696357    -0.53265750     2.10879867
 H       -0.83729328     1.20451525     1.81102642
 C       -2.44653172    -0.00004716    -0.00005253
 N       -3.60330628     0.00003420    -0.00003464
