30
Adamantane-1-carboxamide
 C       -1.86379279    -1.46606649     0.00193435
 C       -1.36444767    -0.72775013     1.25939602
 C       -1.36474336    -0.73090244    -1.25752585
 C        0.17486090    -0.69692913     1.26023578
 C       -1.90544556     0.71541633     1.25775290
 C        0.17451517    -0.70045999    -1.25868316
 C       -1.90585277     0.71222757    -1.25917107
 C        0.69995105     0.04010932    -0.00032445
 H        0.54031413    -0.18862422     2.16248480
 H        0.59032840    -1.70893477     1.27293927
 C        0.13894054     1.47972973    -0.00200123
 C       -1.40508500     1.44934108    -0.00168210
 H        0.49047684     2.02649456     0.88380536
 H        0.49026304     2.02468710    -0.88899594
 H       -3.00253345     0.70991617     1.27636634
 H       -1.57409809     1.24448261     2.16064588
 H       -2.96029968    -1.51225169     0.00208334
 H       -1.49939952    -2.50075044     0.00323613
 H       -1.71348615    -1.25102681     2.15742652
 H       -1.78152283     2.47910724    -0.00293883
 H       -1.57505738     1.23935002    -2.16338447
 H       -3.00293665     0.70623333    -1.27740855
 H       -1.71394005    -1.25644259    -2.15417569
 H        0.54025662    -0.19519198    -2.16248065
 H        0.58962690    -1.71262794    -1.26821491
 C        2.23320630    -0.07021769    -0.00012109
 N        2.94807991     1.09207387    -0.00038711
 O        2.78541673    -1.15649959     0.00034626
 H        3.95249187     1.02333533     0.00057418
 H        2.52089571     1.99949949     0.00018160
