28
2-Nitroadamantane
 C        1.34193605    -1.24875009     1.15956013
 C        0.02310610    -1.26359720     0.35524875
 C        2.16276261     0.00530955     0.79905602
 C       -0.75767673     0.00386321     0.73540063
 C        0.34085587    -1.26282821    -1.15446468
 C        1.34114785     1.26304621     1.14466534
 C        2.47753539    -0.00333324    -0.71069660
 C        0.02233684     1.26736835     0.34023115
 C        0.34002739     1.24891591    -1.16941289
 C        1.16190027    -0.00876285    -1.51565022
 H       -0.58761004     1.27526927    -1.75160551
 H        0.90127200     2.15452258    -1.42926866
 H        0.90264409    -2.17113443    -1.40350897
 H       -0.58678520    -1.29678741    -1.73618949
 H        1.91271482    -2.15652628     0.93088988
 H        1.13114750    -1.26879535     2.23656528
 H       -0.56987652    -2.14227369     0.61623492
 H        1.38608373    -0.01506786    -2.58832618
 H        3.07736646     0.87689823    -0.97429824
 H        3.07891790    -0.88542187    -0.96443337
 H        3.09660684     0.00902330     1.37262423
 H        1.91136722     2.16835802     0.90506927
 H        1.13046533     1.29588285     2.22137210
 H       -0.57139708     2.14854959     0.59077441
 N       -2.17168493     0.00037900     0.14424536
 H       -0.96218261     0.01049356     1.81318831
 O       -2.70328141     1.08151772    -0.05218871
 O       -2.69887910    -1.08296198    -0.05190425
