30
2,2-Dinitroadamantane
 C       -1.20651225     1.25792840    -1.25534502
 C       -0.30779957    -0.00197814    -1.26568005
 C       -2.10187615     1.25858671    -0.00141813
 C       -1.20753881    -1.26114080    -1.25244343
 C        0.55066162    -0.00024115    -0.00009885
 C       -2.99191068     0.00034967     0.00020571
 C       -1.20693837     1.26065616     1.25273446
 C       -2.10244776    -1.25856216     0.00174182
 C       -1.20672884    -1.25826083     1.25543545
 C       -0.30757837     0.00125118     1.26562815
 H       -0.59659859    -2.16597794     1.29780676
 H       -1.81871046    -1.24849412     2.16440830
 H       -0.59641134     2.16567400    -1.29787039
 H       -1.81895728     1.24818487    -2.16402224
 H       -1.81984772     1.25185746     2.16113325
 H       -0.59754526     2.16887183     1.29420981
 H       -2.72810439     2.15737158    -0.00255042
 H       -3.64513620     0.00185203     0.88151114
 H       -3.64513123    -0.00054942    -0.88111143
 H       -2.72911368    -2.15703873     0.00299354
 H       -1.82048873    -1.25257002    -2.16075266
 H       -0.59789888    -2.16913786    -1.29353261
 N        1.55877534     1.18820459    -0.00198850
 N        1.55931233    -1.18804490     0.00175512
 H        0.34502257     0.00220700     2.13726112
 H        0.34475899    -0.00340919    -2.13735428
 O        1.92391419    -1.60227250    -1.08242694
 O        1.93119780    -1.59201565     1.08737866
 O        1.92401036     1.60188404     1.08217170
 O        1.92929819     1.59339586    -1.08762357
