17
2-Methyl-1,3-dioxane
 O       -0.29615446     1.16715243     0.16647421
 C        1.07405286     1.24088274    -0.19674523
 C        1.82418630    -0.00003849     0.29328381
 H        1.16714615     1.32769188    -1.29367319
 H        1.46579321     2.15943809     0.24879852
 C        1.07400369    -1.24084751    -0.19688315
 H        2.85617288    -0.00000450    -0.07577392
 H        1.84956087    -0.00012289     1.38806190
 O       -0.29610133    -1.16712754     0.16662719
 H        1.16679141    -1.32736329    -1.29386845
 H        1.46582777    -2.15953065     0.24832471
 C       -0.91004405    -0.00003424    -0.32810316
 H       -0.82471043    -0.00010737    -1.43459889
 C       -2.35801920     0.00000208     0.11352693
 H       -2.40426748     0.00024100     1.20529854
 H       -2.86371567     0.89120407    -0.26490570
 H       -2.86362300    -0.89141955    -0.26450733
