17
1,3-Dioxepane
 C        1.52375479     0.76089623     0.09648167
 C        1.52281453    -0.76250447    -0.09627825
 C        0.24314727     1.45444928    -0.38032509
 H        2.38400557     1.19784012    -0.42607792
 H        1.64410392     1.00130848     1.16011133
 C        0.24130128    -1.45497390     0.37997760
 H        2.38239245    -1.20057674     0.42643182
 H        1.64316473    -1.00296096    -1.15991542
 O       -0.85428442     1.08726224     0.45057428
 H        0.03150635     1.22428037    -1.43376314
 H        0.34910405     2.54056275    -0.28520781
 O       -0.85589014    -1.08622016    -0.45056569
 H        0.02959191    -1.22576594     1.43364066
 H        0.34619714    -2.54110972     0.28392327
 C       -1.61393280     0.00103715     0.00015673
 H       -2.24737699     0.27234179    -0.85846238
 H       -2.24741032    -0.26941229     0.85903244
