18
Pentanol
 C        3.25190771    -0.22293287     0.00030144
 C        1.92449790     0.54101150    -0.00017852
 H        3.33907369    -0.86472012     0.88434937
 H        3.33923263    -0.86577601    -0.88297343
 H        4.10709076     0.46041731    -0.00004532
 C        0.69938927    -0.38088048    -0.00020639
 H        1.87969503     1.20044667     0.87660417
 H        1.88003010     1.20012528    -0.87721471
 C       -0.62961043     0.38057360    -0.00010746
 H        0.74526426    -1.04122179    -0.87790029
 H        0.74532356    -1.04131254     0.87739986
 C       -1.84289581    -0.54032795    -0.00012933
 H       -0.69071121     1.03438835     0.87886888
 H       -0.69079235     1.03447356    -0.87900696
 H       -1.81183912    -1.19559121     0.88668795
 O       -3.01029233     0.26688411     0.00024095
 H       -1.81203818    -1.19512866    -0.88729422
 H       -3.77722975    -0.31179774     0.00051398
