21
1-(Ethylsulfanyl)butane
 C       -4.15531919     0.23900177     0.00282061
 C       -2.85969190    -0.57823688    -0.00065093
 C       -1.60222578     0.30134290    -0.00021475
 H       -2.84252065    -1.23593462    -0.87971261
 H       -2.84032833    -1.23963251     0.87560381
 C       -0.31221693    -0.52215065    -0.00304815
 H       -1.61304167     0.95681386     0.87971610
 H       -1.61491539     0.96028336    -0.87757157
 S        1.15005307     0.57526703    -0.00138701
 H       -0.27121503    -1.16405361    -0.89038720
 H       -0.26974634    -1.16778823     0.88153386
 C        2.48363146    -0.67651237     0.00165304
 C        3.85022623     0.00785299     0.00212439
 H        2.37126929    -1.31159276    -0.88330520
 H        2.36956072    -1.30916280     0.88815194
 H       -4.21757064     0.88537540    -0.87965038
 H       -4.21459896     0.88214090     0.88782866
 H       -5.03617848    -0.41068800     0.00305092
 H        3.97702518     0.63711064    -0.88382112
 H        4.64811496    -0.74174152     0.00375509
 H        3.97540282     0.63916137     0.88684837
