21
1‐(Ethylsulfanyl)‐2‐methylpropane
 C       -3.56630047     0.02376122     0.03664815
 C       -2.21450438    -0.62488433     0.33288485
 S       -0.85775971     0.42400593    -0.30226783
 H       -2.14786765    -1.61020113    -0.14050044
 H       -2.07997088    -0.75873868     1.41131772
 C        0.57560536    -0.60635214     0.18425522
 C        1.90802086    -0.00574463    -0.29229169
 H        0.43895967    -1.60182501    -0.25209811
 H        0.58100488    -0.71506904     1.27583738
 H        1.82577673     0.16914880    -1.37343172
 C        3.04131036    -1.01681727    -0.05959558
 C        2.22164642     1.33249413     0.39099151
 H        2.85223550    -1.96069257    -0.58166786
 H        3.15550218    -1.24062157     1.00788805
 H        3.99660246    -0.61967101    -0.41812771
 H        1.43859208     2.07384295     0.21094683
 H        3.16841262     1.74195055     0.02374694
 H        2.31360340     1.20137551     1.47609769
 H       -3.71369034     0.15560995    -1.03937682
 H       -3.64589076     1.00566797     0.51247176
 H       -4.37804911    -0.60496428     0.41650799
