21
2,3-Dimethyl-2-butanethiol
 C        1.77937413    -0.29135999    -1.25270820
 C        1.19976707    -0.31186659     0.17011170
 H        1.55494230    -1.20499827    -1.80882598
 H        2.86905572    -0.19550007    -1.20965850
 H        1.38914935     0.55904880    -1.82058263
 C       -0.35589768    -0.43245571     0.21842483
 C        1.75951392     0.87678539     0.96718575
 H        1.55906463    -1.23059322     0.65996005
 C       -0.85012488    -0.62496895     1.66115347
 C       -0.83886011    -1.62631992    -0.62623399
 S       -1.21122269     1.04509521    -0.53290692
 H       -0.37880493    -1.51210179     2.10316533
 H       -1.93338432    -0.76850251     1.67887896
 H       -0.61757565     0.22998517     2.30034865
 H       -0.96149467     1.92324133     0.45503859
 H        1.47152704     1.82866686     0.50906745
 H        2.85335563     0.83615154     0.97499433
 H        1.42746233     0.88302398     2.00877072
 H       -0.31235225    -2.53627366    -0.31604555
 H       -0.65980040    -1.48087275    -1.69407517
 H       -1.91084060    -1.78800721    -0.48438427
