12
2-Butanone-3-yl radical
 C       -2.06771123    -0.08753682    -0.00008675
 H       -2.64951193    -0.40339780     0.87708065
 H       -2.64927704    -0.40339998    -0.87741561
 H       -1.97935573     1.00023192    -0.00009005
 C       -0.72008798    -0.71057313     0.00010830
 H       -0.63692059    -1.79526580     0.00028108
 C        0.49073214     0.07710885     0.00009230
 O        0.45283734     1.30827077     0.00001388
 C        1.81744402    -0.67097821    -0.00005171
 H        1.89875103    -1.31971887     0.87934292
 H        1.90133488    -1.31399708    -0.88343488
 H        2.63892098     0.04642679     0.00327576
