21
Triethylamine-1-yl radical
 N        0.03124185    -0.08090669     0.19076664
 C        1.04925640    -1.03260023     0.22994813
 C       -1.29601170    -0.54694129     0.58584463
 H       -1.88335862     0.31916685     0.90567900
 H       -1.21332133    -1.20834461     1.46281125
 C        0.33211226     1.31860096     0.47277360
 H        1.40861998     1.46287873     0.36446839
 H        0.09088273     1.56147366     1.52211949
 C       -0.39750282     2.28684329    -0.46293774
 H       -1.48492567     2.18946479    -0.38189477
 H       -0.13919221     3.32185418    -0.21484782
 H       -0.11973227     2.09777471    -1.50411538
 C       -2.03575353    -1.27156882    -0.54272430
 H       -1.46971855    -2.14161194    -0.88830704
 H       -3.01506981    -1.62055800    -0.19800330
 H       -2.18421772    -0.60651750    -1.39880677
 H        0.68757835    -2.05549417     0.22007214
 C        2.39621058    -0.76200376    -0.36378446
 H        2.97673908    -0.00767745     0.18590182
 H        2.98926386    -1.68090069    -0.35129909
 H        2.34713906    -0.41604545    -1.41132151
