13
1,4-Dioxane-2-yl radical
 C       -0.58249073    -1.20299532     0.28020568
 C        0.85536763    -1.08437967    -0.20743856
 C        0.59618849     1.24527406    -0.13924316
 C       -0.86835403     1.10047171     0.14302346
 H        0.88506589    -1.20501720    -1.29858324
 H        1.49977216    -1.83659604     0.25627444
 H       -0.60780197    -1.16948315     1.38294592
 H       -1.02018236    -2.15039731    -0.04949318
 H        1.09024671     2.19750593     0.03194419
 H       -1.43870442     1.86595790    -0.39262023
 H       -1.07556112     1.23190610     1.22757471
 O       -1.37053044    -0.16405731    -0.26541779
 O        1.41203444     0.18744113     0.13502136
