13
Cyclopentanone-2-yl radical
 C        0.02036438    -1.18080078    -0.01909337
 H       -0.35875034    -2.19516622    -0.07160964
 C        1.45448600    -0.80114890     0.10207873
 H        2.11026513    -1.37710396    -0.56171017
 H        1.81537028    -1.00669798     1.12421120
 C        0.05212108     1.21759413     0.16128936
 C        1.46750690     0.72545611    -0.19769442
 H        1.65247446     0.87817128    -1.26586245
 H        2.25766293     1.24808275     0.34613310
 H       -0.30795904     2.04252235    -0.45783971
 H       -0.00729837     1.54976276     1.20595791
 C       -0.84264455    -0.02407993     0.00569112
 O       -2.06564760    -0.02455415    -0.05933370
