20
Cycloheptyl radical
 C       -0.25308872    -1.57708624    -0.29816116
 C       -1.50894583    -0.79217773     0.11339393
 C       -1.52692650     0.69822106    -0.24894139
 C        1.04299518    -1.16038463     0.42124034
 C       -0.38956697     1.53275885     0.39612526
 C        1.74796546     0.06710267    -0.17697989
 C        0.95595468     1.33590566    -0.22551995
 H       -0.10662654    -1.50102096    -1.38496423
 H       -1.64155269    -0.89229772     1.20052766
 H       -1.48155262     0.81793089    -1.33917000
 H       -0.36806231     1.29195780     1.47253082
 H        0.82763399    -0.98865560     1.48444107
 H        2.68612112     0.23665234     0.38095003
 H       -0.44068697    -2.63811601    -0.09227622
 H       -2.38522109    -1.27069863    -0.34235137
 H       -2.48904669     1.11875783     0.07087254
 H        1.75177096    -1.99652747     0.39167612
 H       -0.65665212     2.59316498     0.33089694
 H        2.08481141    -0.18729577    -1.19634467
 H        1.40479183     2.17380025    -0.75243108
